 NOTE: Siesta V5 introduces some new defaults for basis-set generation
 NOTE: which might lead to slightly different numerical results.
 NOTE: Please see the manual for full details and compatibility measures.

reinit: Reading from standard input
reinit: Dumping input in INPUT_TMP.73689
************************** Dump of input data file ****************************
# mpirun -np 8 siesta-5 < Guanine.fdf > Guanine.out
SystemLabel      Guanine
NumberOfAtoms    16
NumberOfSpecies  4
%block ChemicalSpeciesLabel
    1    1  H ../../../Pseudos/PBE/H/H.psf
    2    7  N ../../../Pseudos/PBE/N/N.psf
    3    14 Si ../../../Pseudos/PBE/Si/Si.psf
    4    8  O ../../../Pseudos/PBE/O/O.psf
%endblock ChemicalSpeciesLabel
# This overrides Defaults.fdf configuration
MD.Steps                    1000
%block Geometry.Constraints
    atom all 0.0 0.0 1.0 # constrain along z Cartesian vector
    atom [6]
%endblock
AtomicCoordinatesFormat NotScaledCartesianAng
%block AtomicCoordinatesAndAtomicSpecies
    5.51993147   -6.75864714   -0.00000000   1       1  H
    4.49418071   -6.51292476   -0.00000000   2       2  N
    3.19299684   -7.75477845   -0.00000000   3       3  Si
    3.67934250   -9.16242528    0.00000000   1       4  H
    1.56099747   -7.26905763   -0.00000000   2       5  N
    1.60862386   -5.46691202    0.00000000   3       6  Si
    0.40534443   -3.59065243   -0.00000000   3       7  Si
   -1.13726093   -3.20141150   -0.00000000   4       8  O
    1.64738352   -2.18050179    0.00000000   2       9  N
    1.13768814   -1.24603335    0.00000000   1      10  H
    3.40349423   -2.08435181    0.00000000   3      11  Si
    4.03832178   -0.46232444   -0.00000000   2      12  N
    3.50305287    0.44278792    0.00000000   1      13  H
    5.08247092   -0.35479414   -0.00000000   1      14  H
    4.56478883   -3.33381428    0.00000000   2      15  N
    3.72019846   -4.86381276   -0.00000000   3      16  Si
%endblock AtomicCoordinatesAndAtomicSpecies
%include ../../../Defaults.fdf
************************** End of input data file *****************************

reinit: -----------------------------------------------------------------------
reinit: System Name:
reinit: -----------------------------------------------------------------------
reinit: System Label: Guanine
reinit: -----------------------------------------------------------------------

NOTE on units for spin output:
{S} is the spin magnetic moment, in units of the Bohr magneton,
assuming a g-factor for the electron spin of exactly 2.
The spin magnetic moment is then numerically equal to the charge inbalance,
in units of electrons, between the spin-up and -down channels.

initatom: Reading input for the pseudopotentials and atomic orbitals ----------
Species number:   1 Atomic number:    1 Label: H
Species number:   2 Atomic number:    7 Label: N
Species number:   3 Atomic number:   14 Label: Si
Species number:   4 Atomic number:    8 Label: O

Ground state valence configuration (from tables):   1s01  2p00  3d00  4f00
Ground state valence configuration (from tables):   2s02  2p03  3d00  4f00
Ground state valence configuration (from tables):   3s02  3p02  3d00  4f00
Ground state valence configuration (from tables):   2s02  2p04  3d00  4f00

---- Processing specs for species: H
Reading pseudopotential information in formatted form from:
  ../../../Pseudos/PBE/H/H.psf

[...]

---- Processing specs for species: O
Reading pseudopotential information in formatted form from:
  ../../../Pseudos/PBE/O/O.psf

---- Pseudopotential check for H

Pseudopotential generated from a fully relativistic atomic calculation
There are spin-orbit semi-local pseudopotentials available

Pseudized shells:
1s( 1.00) rc: 0.05
Valence configuration for ps generation: (assumed as above)

[...]

Pseudized shells:
2s( 2.00) rc: 1.02
2p( 3.00) rc: 1.36
3d( 0.00) rc: 3.29
Valence configuration for ps generation: (assumed as above)

[...]

Pseudized shells:
3s( 2.00) rc: 1.67
3p( 2.00) rc: 2.22
3d( 0.00) rc: 3.44
Valence configuration for ps generation: (assumed as above)

---- Pseudopotential check for O

Pseudopotential generated from a fully relativistic atomic calculation
There are spin-orbit semi-local pseudopotentials available

Pseudized shells:
2s( 2.00) rc: 1.05
2p( 4.00) rc: 1.02
Valence configuration for ps generation: (assumed as above)
For H, standard SIESTA heuristics set lmxkb to 2
 (one more than the basis l, including polarization orbitals).
Use PS.lmax or PS.KBprojectors blocks to override.
For N, standard SIESTA heuristics set lmxkb to 3
 (one more than the basis l, including polarization orbitals).
Use PS.lmax or PS.KBprojectors blocks to override.
For Si, standard SIESTA heuristics set lmxkb to 3
 (one more than the basis l, including polarization orbitals).
Use PS.lmax or PS.KBprojectors blocks to override.
For O, standard SIESTA heuristics set lmxkb to 3
 (one more than the basis l, including polarization orbitals).
Use PS.lmax or PS.KBprojectors blocks to override.
../../../Pseudos/PBE/H/H.psf pseudopotential only contains V_ls up to l=0 -- lmxkb reset.
../../../Pseudos/PBE/N/N.psf pseudopotential only contains V_ls up to l=2 -- lmxkb reset.
../../../Pseudos/PBE/Si/Si.psf pseudopotential only contains V_ls up to l=2 -- lmxkb reset.
../../../Pseudos/PBE/O/O.psf pseudopotential only contains V_ls up to l=1 -- lmxkb reset.

<basis_specs>
H                    Z=   1    Mass=  1.0080        Charge= 0.17977+309
Lmxo=1 Lmxkb= 0    BasisType=split      Semic=F
L=0  Nsemic=0  Cnfigmx=1
          i=1  nzeta=2  polorb=1  (1s)  (to be polarized perturbatively)
            splnorm:   0.62000
               vcte:    40.000
               rinn:  -0.90000
               qcoe:    0.0000
               qyuk:    0.0000
               qwid:   0.10000E-01
                rcs:    0.0000      0.0000
            lambdas:    1.0000      1.0000
L=1  Nsemic=0  Cnfigmx=2
          i=1  nzeta=0  polorb=0  (2p)  (perturbative polarization orbital) (from 1s)
</basis_specs>

Filter: Requested cutoff:  290.000000 Ry
Using PAO.SplitTailNorm
atom: Called for H                     (Z =   1)
NOTE: H pseudopotential has channels up to l= 0
NOTE: PAOs with higher l will be generated with V_local
Maximum radius (at nrval) set to   50.00000 8518

read_vps: Pseudopotential generation method:
read_vps: ATM4.2.7  Troullier-Martins
Valence charge in pseudo generation:    1.00000

xc_check: Exchange-correlation functional:
xc_check: GGA Perdew, Burke & Ernzerhof 1996
V l=0 = -2*Zval/r beyond r=  0.0513
All V_l potentials equal beyond r=  0.0513
This should be close to max(r_c) in ps generation
All pots = -2*Zval/r beyond r=  0.0513
Using small-core scheme (local charge) for Vlocal

VLOCAL_FROM_CHLOCAL: 99.0% of the norm of Vloc inside  16462.511 Ry
VLOCAL_FROM_CHLOCAL: 99.9% of the norm of Vloc inside  37518.368 Ry
atom: Maximum radius for chlocal:    0.06330
atom: Maximum radius for r*vlocal+2*Zval:    0.05437

KBgen: Kleinman-Bylander projectors:
GHOST: No ghost state for L =  0
KBproj: WARNING: Rc(0)=      0.3107
KBproj: WARNING: Cut off radius for the KB projector too small
   l= 0   rc=  0.310725   el= -0.477181   Ekb=-33.944693   kbcos= -0.005118

KBgen: Total number of Kleinman-Bylander projectors:   1
atom: -------------------------------------------------------------------------

atom: SANKEY-TYPE ORBITALS:
atom: Selected multiple-zeta basis: split

SPLIT: Orbitals with angular momentum L= 0

SPLIT: Basis orbitals for state 1s

SPLIT: PAO cut-off radius determined from an
SPLIT: energy shift=  0.005000 Ry
Split based on tail norm

   izeta = 1
                 lambda =    1.000000
                     rc =    5.772464
                 energy =   -0.471502
                kinetic =    0.941609
    potential(screened) =   -1.413111
       potential(ionic) =   -1.936120
PAO Filter: Cutoff used:  142.10 Ry
PAO Filter: diagnostic kin energy tol:    0.003000 Ry
PAO Filter: Nominal cutoff (before filtering):  107.24 Ry
Filter:    Number of eigenfunctions  of the
           filtering kernel (total, used)= 55 20

   izeta = 2
                 rmatch =    1.661681
              splitnorm =    0.620000
                 energy =    1.741023
                kinetic =    5.838304
    potential(screened) =   -4.097281
       potential(ionic) =   -4.634491
PAO Filter: Cutoff used:  142.10 Ry
PAO Filter: diagnostic kin energy tol:    0.003000 Ry
PAO Filter: Nominal cutoff (before filtering):  829.47 Ry
Filter:    Number of eigenfunctions  of the
           filtering kernel (total, used)= 23  5
*Note: V_local used for l= 1

** Using vlocal for PAOs with L= 1

POLgen: Perturbative polarization orbital with L=  1

POLgen: Polarization orbital for state 1s
*Note: V_local used for lpol= 1

** Using vlocal for PAOs with L= 1
Split based on tail norm

   izeta = 1
                     rc =    5.772464
                 energy =    0.606793
                kinetic =    1.227790
    potential(screened) =   -0.620997
       potential(ionic) =   -1.099517
PAO Filter: diagnostic kin energy tol:    0.003000 Ry
PAO Filter: Nominal cutoff (before filtering):   49.50 Ry
Filter:    Number of eigenfunctions  of the
           filtering kernel (total, used)= 55 20
atom: Total number of Sankey-type orbitals:  5

atm_pop: Valence configuration (for local Pseudopot. screening):
 1s( 1.00)
 2p( 0.00)
Vna: chval, zval:    1.00000   1.00000

Vna:  Cut-off radius for the neutral-atom potential:   5.772464
VNA Filter: diagnostic kinetic energy tol:    0.003000 Ry
VNA Filter: Nominal cutoff (before filtering):21300.87 Ry
VNA Filter: Cutoff used:   290.00 Ry
Filter:    Number of eigenfunctions  of the
           filtering kernel (total, used)= 74 30

atom: _________________________________________________________________________

<basis_specs>
N                    Z=   7    Mass=  14.007        Charge= 0.17977+309
Lmxo=2 Lmxkb= 2    BasisType=split      Semic=F
L=0  Nsemic=0  Cnfigmx=2
          i=1  nzeta=2  polorb=0  (2s)
            splnorm:   0.28000
               vcte:    40.000
               rinn:  -0.90000
               qcoe:    0.0000
               qyuk:    0.0000
               qwid:   0.10000E-01
                rcs:    0.0000      0.0000
            lambdas:    1.0000      1.0000
L=1  Nsemic=0  Cnfigmx=2
          i=1  nzeta=2  polorb=1  (2p)  (to be polarized perturbatively)
            splnorm:   0.28000
               vcte:    40.000
               rinn:  -0.90000
               qcoe:    0.0000
               qyuk:    0.0000
               qwid:   0.10000E-01
                rcs:    0.0000      0.0000
            lambdas:    1.0000      1.0000
L=2  Nsemic=0  Cnfigmx=3
          i=1  nzeta=0  polorb=0  (3d)  (perturbative polarization orbital) (from 2p)
L=0  Nkbl=1  erefs: 0.17977+309
L=1  Nkbl=1  erefs: 0.17977+309
L=2  Nkbl=1  erefs: 0.17977+309
</basis_specs>

Filter: Requested cutoff:  290.000000 Ry
Using PAO.SplitTailNorm
atom: Called for N                     (Z =   7)
Maximum radius (at nrval) set to   50.00000 8518

[...]

KBgen: Kleinman-Bylander projectors:
GHOST: No ghost state for L =  0
   l= 0   rc=  3.286396   el= -1.364990   Ekb= -4.084395   kbcos= -0.707149
GHOST: No ghost state for L =  1
[...]
   scf:    7    -4754.890377    -4754.890377    -4754.890377  0.000004 -3.701177  0.000045
     spin moment: {S} , |S| = {   -0.00000    0.00000    0.00000 }     0.00000
   scf:    8    -4754.890377    -4754.890377    -4754.890377  0.000002 -3.701181  0.000022
     spin moment: {S} , |S| = {    0.00000    0.00000    0.00000 }     0.00000
   scf:    9    -4754.890377    -4754.890377    -4754.890377  0.000001 -3.701182  0.000009
     spin moment: {S} , |S| = {    0.00000    0.00000    0.00000 }     0.00000
   scf:   10    -4754.890377    -4754.890377    -4754.890377  0.000000 -3.701182  0.000005
     spin moment: {S} , |S| = {    0.00000    0.00000    0.00000 }     0.00000
   scf:   11    -4754.890377    -4754.890377    -4754.890377  0.000000 -3.701182  0.000001
     spin moment: {S} , |S| = {    0.00000    0.00000    0.00000 }     0.00000
   scf:   12    -4754.890377    -4754.890377    -4754.890377  0.000000 -3.701182  0.000001
     spin moment: {S} , |S| = {    0.00000    0.00000    0.00000 }     0.00000

[...]

        iscf     Eharris(eV)        E_KS(eV)     FreeEng(eV)     dDmax    Ef(eV) dHmax(eV)
   scf:    1    -4754.887654    -4754.890691    -4754.890691  0.000198 -3.679136  0.006158
     spin moment: {S} , |S| = {    0.00000    0.00000    0.00000 }     0.00000
   scf:    2    -4754.890551    -4754.890650    -4754.890650  0.000513 -3.678212  0.023892
     spin moment: {S} , |S| = {    0.00000    0.00000    0.00000 }     0.00000
   scf:    3    -4754.890703    -4754.890695    -4754.890695  0.000402 -3.678883  0.001141
     spin moment: {S} , |S| = {    0.00000    0.00000    0.00000 }     0.00000
   scf:    4    -4754.890695    -4754.890695    -4754.890695  0.000011 -3.678858  0.000525
     spin moment: {S} , |S| = {    0.00000    0.00000    0.00000 }     0.00000
   scf:    5    -4754.890695    -4754.890695    -4754.890695  0.000004 -3.678859  0.000215
     spin moment: {S} , |S| = {    0.00000    0.00000    0.00000 }     0.00000
   scf:    6    -4754.890695    -4754.890695    -4754.890695  0.000002 -3.678861  0.000076
     spin moment: {S} , |S| = {    0.00000    0.00000    0.00000 }     0.00000
   scf:    7    -4754.890695    -4754.890695    -4754.890695  0.000001 -3.678862  0.000024
     spin moment: {S} , |S| = {    0.00000    0.00000    0.00000 }     0.00000
   scf:    8    -4754.890695    -4754.890695    -4754.890695  0.000000 -3.678862  0.000005
     spin moment: {S} , |S| = {    0.00000    0.00000    0.00000 }     0.00000
   scf:    9    -4754.890695    -4754.890695    -4754.890695  0.000000 -3.678862  0.000002
     spin moment: {S} , |S| = {    0.00000    0.00000    0.00000 }     0.00000
   scf:   10    -4754.890695    -4754.890695    -4754.890695  0.000000 -3.678862  0.000001
     spin moment: {S} , |S| = {    0.00000    0.00000    0.00000 }     0.00000

[...]

        iscf     Eharris(eV)        E_KS(eV)     FreeEng(eV)     dDmax    Ef(eV) dHmax(eV)
   scf:    1    -4754.887758    -4754.891345    -4754.891345  0.000490 -3.627212  0.016309
     spin moment: {S} , |S| = {   -0.00000    0.00000    0.00000 }     0.00000
   scf:    2    -4754.890560    -4754.891111    -4754.891111  0.001221 -3.625223  0.065845
     spin moment: {S} , |S| = {   -0.00000    0.00000    0.00000 }     0.00000
   scf:    3    -4754.891411    -4754.891363    -4754.891363  0.000989 -3.626709  0.001116
     spin moment: {S} , |S| = {   -0.00000    0.00000    0.00000 }     0.00000
   scf:    4    -4754.891363    -4754.891363    -4754.891363  0.000019 -3.626647  0.000525
     spin moment: {S} , |S| = {   -0.00000    0.00000    0.00000 }     0.00000
   scf:    5    -4754.891363    -4754.891363    -4754.891363  0.000008 -3.626625  0.000193
     spin moment: {S} , |S| = {   -0.00000    0.00000    0.00000 }     0.00000
   scf:    6    -4754.891363    -4754.891363    -4754.891363  0.000002 -3.626620  0.000086
     spin moment: {S} , |S| = {   -0.00000    0.00000    0.00000 }     0.00000
   scf:    7    -4754.891363    -4754.891363    -4754.891363  0.000001 -3.626618  0.000023
     spin moment: {S} , |S| = {   -0.00000    0.00000    0.00000 }     0.00000
   scf:    8    -4754.891363    -4754.891363    -4754.891363  0.000001 -3.626617  0.000010
     spin moment: {S} , |S| = {   -0.00000    0.00000    0.00000 }     0.00000
   scf:    9    -4754.891363    -4754.891363    -4754.891363  0.000000 -3.626617  0.000003
     spin moment: {S} , |S| = {   -0.00000    0.00000    0.00000 }     0.00000
   scf:   10    -4754.891363    -4754.891363    -4754.891363  0.000000 -3.626617  0.000001
     spin moment: {S} , |S| = {   -0.00000    0.00000    0.00000 }     0.00000
   scf:   11    -4754.891363    -4754.891363    -4754.891363  0.000000 -3.626617  0.000001
     spin moment: {S} , |S| = {   -0.00000    0.00000    0.00000 }     0.00000

[...]

        iscf     Eharris(eV)        E_KS(eV)     FreeEng(eV)     dDmax    Ef(eV) dHmax(eV)
   scf:    1    -4754.892684    -4754.891594    -4754.891594  0.000048 -3.617221  0.003013
     spin moment: {S} , |S| = {   -0.00000    0.00000    0.00000 }     0.00000
   scf:    2    -4754.891582    -4754.891590    -4754.891590  0.000149 -3.617184  0.009953
     spin moment: {S} , |S| = {   -0.00000    0.00000    0.00000 }     0.00000
   scf:    3    -4754.891595    -4754.891594    -4754.891594  0.000121 -3.617189  0.000259
     spin moment: {S} , |S| = {   -0.00000    0.00000    0.00000 }     0.00000
   scf:    4    -4754.891594    -4754.891594    -4754.891594  0.000003 -3.617182  0.000123
     spin moment: {S} , |S| = {   -0.00000    0.00000    0.00000 }     0.00000
   scf:    5    -4754.891594    -4754.891594    -4754.891594  0.000001 -3.617175  0.000034
     spin moment: {S} , |S| = {   -0.00000    0.00000    0.00000 }     0.00000
   scf:    6    -4754.891594    -4754.891594    -4754.891594  0.000001 -3.617173  0.000011
     spin moment: {S} , |S| = {   -0.00000    0.00000    0.00000 }     0.00000
   scf:    7    -4754.891594    -4754.891594    -4754.891594  0.000000 -3.617171  0.000003
     spin moment: {S} , |S| = {   -0.00000    0.00000    0.00000 }     0.00000
   scf:    8    -4754.891594    -4754.891594    -4754.891594  0.000000 -3.617170  0.000001
     spin moment: {S} , |S| = {   -0.00000    0.00000    0.00000 }     0.00000
   scf:    9    -4754.891594    -4754.891594    -4754.891594  0.000000 -3.617170  0.000000
     spin moment: {S} , |S| = {   -0.00000    0.00000    0.00000 }     0.00000

[...]

                        Begin Broyden opt. move =     29

outcoor: Atomic coordinates (Ang):
    5.51499433   -6.73542603    0.00000000   1       1  H
    4.49668993   -6.49969802    0.00000000   2       2  N
    3.20696287   -7.73699471    0.00000000   3       3  Si
    3.70523112   -9.12632560    0.00000000   1       4  H
    1.58602673   -7.26864074    0.00000000   2       5  N
    1.60862386   -5.46691202    0.00000000   3       6  Si
    0.39664659   -3.60445475    0.00000000   3       7  Si
   -1.13326124   -3.19545819    0.00000000   4       8  O
    1.63964823   -2.18836936    0.00000000   2       9  N
    1.07273950   -1.29576183    0.00000000   1      10  H
    3.39197379   -2.08169151    0.00000000   3      11  Si
    4.08086968   -0.48706852    0.00000000   2      12  N
    3.54076212    0.40505808    0.00000000   1      13  H
    5.12537589   -0.39066969    0.00000000   1      14  H
    4.51824581   -3.33711575    0.00000000   2      15  N
    3.70506191   -4.86141287    0.00000000   3      16  Si

outcell: Unit cell vectors (Ang):
       13.438530    0.000000    0.000000
        0.000000   17.285978    0.000000
        0.000000    0.000000    8.754136

outcell: Cell vector modules (Ang)   :   13.438530   17.285978    8.754136
outcell: Cell angles (23,13,12) (deg):     90.0000     90.0000     90.0000
outcell: Cell volume (Ang**3)        :   2033.5695
<dSpData1D:S at geom step 29
  <sparsity:sparsity for geom step 29
    nrows_g=168 nrows=10 sparsity=.0576 nnzs=1626, refcount: 8>
  <dData1D:(new from dSpData1D) n=1626, refcount: 1>
refcount: 1>
new_DM -- step:    30
Re-using DM from previous geometries...
Number of DMs in history: 1
 DM extrapolation coefficients:
1   1.00000
New DM after history re-use:
<dSpData2D:SpM extrapolated using coords
  <sparsity:sparsity for geom step 29
    nrows_g=168 nrows=10 sparsity=.0576 nnzs=1626, refcount: 10>
  <dData2D:(temp array for extrapolation) n=1626 m=8, refcount: 1>
refcount: 1>
     spin moment: {S} , |S| = {   -0.00000    0.00000    0.00000 }     0.00000

InitMesh: MESH = 144 x 192 x 96 = 2654208
InitMesh: Mesh cutoff (required, used) =   300.000   317.339 Ry
New grid distribution [1]: sub = 2
New grid distribution [2]: sub = 2
New grid distribution [3]: sub = 2
Setting up quadratic distribution...

        iscf     Eharris(eV)        E_KS(eV)     FreeEng(eV)     dDmax    Ef(eV) dHmax(eV)
   scf:    1    -4754.890537    -4754.891629    -4754.891629  0.000159 -3.615399  0.004324
     spin moment: {S} , |S| = {   -0.00000    0.00000    0.00000 }     0.00000
   scf:    2    -4754.891573    -4754.891612    -4754.891612  0.000280 -3.616712  0.016173
     spin moment: {S} , |S| = {   -0.00000    0.00000    0.00000 }     0.00000
   scf:    3    -4754.891634    -4754.891631    -4754.891631  0.000230 -3.615814  0.000662
     spin moment: {S} , |S| = {   -0.00000    0.00000    0.00000 }     0.00000
   scf:    4    -4754.891631    -4754.891631    -4754.891631  0.000006 -3.615883  0.000235
     spin moment: {S} , |S| = {   -0.00000    0.00000    0.00000 }     0.00000
   scf:    5    -4754.891631    -4754.891631    -4754.891631  0.000002 -3.615897  0.000101
     spin moment: {S} , |S| = {   -0.00000    0.00000    0.00000 }     0.00000
   scf:    6    -4754.891631    -4754.891631    -4754.891631  0.000001 -3.615904  0.000033
     spin moment: {S} , |S| = {   -0.00000    0.00000    0.00000 }     0.00000
   scf:    7    -4754.891631    -4754.891631    -4754.891631  0.000001 -3.615910  0.000007
     spin moment: {S} , |S| = {   -0.00000    0.00000    0.00000 }     0.00000
   scf:    8    -4754.891631    -4754.891631    -4754.891631  0.000000 -3.615912  0.000002
     spin moment: {S} , |S| = {   -0.00000    0.00000    0.00000 }     0.00000
   scf:    9    -4754.891631    -4754.891631    -4754.891631  0.000000 -3.615912  0.000001
     spin moment: {S} , |S| = {   -0.00000    0.00000    0.00000 }     0.00000
   scf:   10    -4754.891631    -4754.891631    -4754.891631  0.000000 -3.615912  0.000000
     spin moment: {S} , |S| = {   -0.00000    0.00000    0.00000 }     0.00000

SCF Convergence by DM+H criterion
max |DM_out - DM_in|         :     0.0000000575
max |H_out - H_in|      (eV) :     0.0000004443
SCF cycle converged after 10 iterations

Using DM_out to compute the final energy and forces

siesta: E_KS(eV) =            -4754.8916
     spin moment: {S} , |S| = {   -0.00000    0.00000    0.00000 }     0.00000

siesta: Atomic forces (eV/Ang):
     1    0.005655    0.001529   -0.000000
     2    0.006541    0.002185   -0.000000
     3    0.006867    0.001396    0.000000
     4    0.006299    0.000504    0.000000
     5    0.006929    0.000581    0.000000
     6   -0.031925   -0.002486   -0.000000
     7    0.001304    0.000788    0.000000
     8    0.000481    0.002827   -0.000000
     9    0.002569   -0.002253   -0.000000
    10    0.003532   -0.002704    0.000000
    11    0.001464   -0.001519   -0.000000
    12   -0.001183   -0.000925   -0.000000
    13    0.006030    0.002860   -0.000000
    14    0.003510   -0.006670    0.000000
    15    0.002979    0.000860    0.000000
    16    0.001799    0.001014   -0.000000
   Tot    0.022852   -0.002013   -0.000000
   Max    0.031925
   Res    0.005417    sqrt( Sum f_i^2 / 3N )
   Max    0.006929    constrained

Stress tensor Voigt[x,y,z,yz,xz,xy] (kbar):        0.06        0.01       -0.06       -0.00        0.00       -0.04
(Free)E + p*V (eV/cell)    -4754.8960
Target enthalpy (eV/cell)    -4754.8916

outcoor: Relaxed atomic coordinates (Ang):
    5.51499433   -6.73542603    0.00000000   1       1  H
    4.49668993   -6.49969802    0.00000000   2       2  N
    3.20696287   -7.73699471    0.00000000   3       3  Si
    3.70523112   -9.12632560    0.00000000   1       4  H
    1.58602673   -7.26864074    0.00000000   2       5  N
    1.60862386   -5.46691202    0.00000000   3       6  Si
    0.39664659   -3.60445475    0.00000000   3       7  Si
   -1.13326124   -3.19545819    0.00000000   4       8  O
    1.63964823   -2.18836936    0.00000000   2       9  N
    1.07273950   -1.29576183    0.00000000   1      10  H
    3.39197379   -2.08169151    0.00000000   3      11  Si
    4.08086968   -0.48706852    0.00000000   2      12  N
    3.54076212    0.40505808    0.00000000   1      13  H
    5.12537589   -0.39066969    0.00000000   1      14  H
    4.51824581   -3.33711575    0.00000000   2      15  N
    3.70506191   -4.86141287    0.00000000   3      16  Si

siesta: Program's energy decomposition (eV):
siesta: Ebs     =      -650.254443
siesta: Eions   =      4723.013675
siesta: Ena     =       979.112352
siesta: Ekin    =      1574.831213
siesta: Enl(+so)=     -1237.686170
siesta: Eso(nil)=         0.000000
siesta: Edftu   =         0.000000
siesta: DEna    =        10.970796
siesta: DUscf   =         6.817662
siesta: DUext   =         0.000000
siesta: Ex      =     -1281.179448
siesta: Ec      =       -84.744360
siesta: Exc     =     -1365.923808
siesta: EbV     =         0.000000
siesta: eta*DQ  =         0.000000
siesta: Emadel  =         0.000000
siesta: Emeta   =         0.000000
siesta: Emolmec =         0.000000
siesta: Ekinion =         0.000000
siesta: Eharris =     -4754.891631
siesta: Etot    =     -4754.891631
siesta: FreeEng =     -4754.891631

siesta: Final energy (eV):
siesta:  Band Struct. =    -650.254443
siesta:       Kinetic =    1574.831213
siesta:       Hartree =    3849.704124
siesta:         Edftu =       0.000000
siesta:      Eso(nil) =       0.000000
siesta:    Ext. field =       0.000000
siesta:         Exch. =   -1281.179448
siesta:         Corr. =     -84.744360
siesta:     Bulk bias =       0.000000
siesta:   Exch.-corr. =   -1365.923808
siesta:  Ion-electron =   -9073.191674
siesta:       Ion-ion =     259.688514
siesta:       Ekinion =       0.000000
siesta: D3 dispersion =       0.000000
siesta:         Total =   -4754.891631
siesta:         Fermi =      -3.615912

siesta: Atomic forces (eV/Ang):
siesta:      1    0.005655    0.001529   -0.000000
siesta:      2    0.006541    0.002185   -0.000000
siesta:      3    0.006867    0.001396    0.000000
siesta:      4    0.006299    0.000504    0.000000
siesta:      5    0.006929    0.000581    0.000000
siesta:      6   -0.031925   -0.002486   -0.000000
siesta:      7    0.001304    0.000788    0.000000
siesta:      8    0.000481    0.002827   -0.000000
siesta:      9    0.002569   -0.002253   -0.000000
siesta:     10    0.003532   -0.002704    0.000000
siesta:     11    0.001464   -0.001519   -0.000000
siesta:     12   -0.001183   -0.000925   -0.000000
siesta:     13    0.006030    0.002860   -0.000000
siesta:     14    0.003510   -0.006670    0.000000
siesta:     15    0.002979    0.000860    0.000000
siesta:     16    0.001799    0.001014   -0.000000
siesta: ----------------------------------------
siesta:    Tot    0.022852   -0.002013   -0.000000

siesta: Stress tensor (static) (eV/Ang**3):
siesta:     0.000040   -0.000028   -0.000000
siesta:    -0.000028    0.000004   -0.000000
siesta:     0.000000   -0.000000   -0.000038

siesta: Cell volume =       2033.569529 Ang**3

siesta: Pressure (static):
siesta:                Solid            Molecule  Units
siesta:          -0.00000002         -0.00000007  Ry/Bohr**3
siesta:          -0.00000217         -0.00000616  eV/Ang**3
siesta:          -0.00346970         -0.00987564  kBar
(Free)E+ p_basis*V_orbitals  =       -4747.095800
(Free)Eharris+ p_basis*V_orbitals  =       -4747.095800
     spin moment: {S} , |S| = {   -0.00000    0.00000    0.00000 }     0.00000

siesta: Electric dipole (a.u.)  =    3.224814    1.004921    0.000000
siesta: Electric dipole (Debye) =    8.196659    2.554254    0.000000

cite: Please see "Guanine.bib" for an exhaustive BiBTeX file.
cite: Please clearly indicate Siesta version in published work: 5.1-MaX-41-g6ad11e234
cite: This calculation has made use of the following articles
cite: which are encouraged to be cited in a published work.
        Primary SIESTA paper
          DOI: www.doi.org/10.1088/0953-8984/14/11/302
        Spin-orbit coupling (off-site approximation)
          DOI: www.doi.org/10.1088/0953-8984/24/8/086005
        ELPA library
          DOI: www.doi.org/10.1088/0953-8984/26/21/213201

>> End of run:  11-OCT-2024  21:00:19
Job completed