>> Start of run:  22-MAY-2023  16:06:25

reinit: Reading from standard input
reinit: Dumped input in INPUT_TMP.38117
************************** Dump of input data file ****************************
SystemLabel      GC
NumberOfAtoms    29
NumberOfSpecies  4
%block ChemicalSpeciesLabel
    1    8  O
    2    7  N
    3   14  Si
    4    1  H
%endblock ChemicalSpeciesLabel
# Single point calculation
MD.TypeOfRun                CG
MD.Steps                    0
SCF.MustConverge            F # In case it does not. There can be 2 very close atoms
AtomicCoordinatesFormat NotScaledCartesianAng
%block AtomicCoordinatesAndAtomicSpecies
0.854927710    3.902811360    0.000000000       1
-3.151486600   0.823854130    0.000000000       2
1.928518680    1.174000900    0.000000000       2
0.979899500    -1.830275890   0.000000000       2
-2.159258930   -2.028004800   0.000000000       2
3.785319770    -1.112700660   0.000000000       2
-1.345933810   0.976250250    0.000000000       3
-0.599439880   -1.096077170   0.000000000       3
0.453182890    2.350510230    0.000000000       3
2.133302030    -0.576510800   0.000000000       3
-3.516065660   -0.842056510   0.000000000       3
2.824527830    1.754723110    0.000000000       4
-4.877551690   -1.469214660   0.000000000       4
3.994952020    -2.143204000   0.000000000       4
4.620903610    -0.483666060   0.000000000       4
-2.279085180   -3.081514090   0.000000000       4
3.717317875    4.221914590    0.000000000       3
5.586277365    5.481558220    0.000000000       3
5.127344985    1.480176370    0.000000000       3
7.194937705    3.986767590    0.000000000       3
3.776847825    2.536962130    0.000000000       2
2.087318675    4.851974820    0.000000000       2
6.771233855    2.271266780    0.000000000       2
5.866641065    6.951780740    0.000000000       4
8.690349085    4.205620130    0.000000000       4
1.842859685    5.870440770    0.000000000       4
1.260577495    4.195126690    0.000000000       4
5.186620745    -0.102265660   0.000000000       1
7.542889445    1.544299420    0.000000000       4
%endblock AtomicCoordinatesAndAtomicSpecies
%include ../../../Defaults.fdf
************************** End of input data file *****************************

reinit: -----------------------------------------------------------------------
reinit: System Name:
reinit: -----------------------------------------------------------------------
reinit: System Label: GC
reinit: -----------------------------------------------------------------------

initatom: Reading input for the pseudopotentials and atomic orbitals ----------
Species number:   1 Atomic number:    8 Label: O
Species number:   2 Atomic number:    7 Label: N
Species number:   3 Atomic number:   14 Label: Si
Species number:   4 Atomic number:    1 Label: H

Ground state valence configuration:   2s02  2p04
Reading pseudopotential information in formatted form from O.psf

Pseudopotential generated from a relativistic atomic calculation

Valence configuration for pseudopotential generation:
2s( 2.00) rc: 0.45
2p( 4.00) rc: 0.92
3d( 0.00) rc: 2.24
4f( 0.00) rc: 0.25
Ground state valence configuration:   2s02  2p03
Reading pseudopotential information in formatted form from N.psf

[...]

Valence configuration for pseudopotential generation:
2s( 2.00) rc: 0.94
2p( 3.00) rc: 0.59
3d( 0.00) rc: 3.46
4f( 0.00) rc: 2.47
Ground state valence configuration:   3s02  3p02
Reading pseudopotential information in formatted form from Si.psf

[...]

Valence configuration for pseudopotential generation:
3s( 2.00) rc: 1.67
3p( 2.00) rc: 2.04
3d( 0.00) rc: 2.89
4f( 0.00) rc: 2.49
Ground state valence configuration:   1s01
Reading pseudopotential information in formatted form from H.psf

Pseudopotential generated from a relativistic atomic calculation

Valence configuration for pseudopotential generation:
1s( 1.00) rc: 0.01
2p( 0.00) rc: 0.60
3d( 0.00) rc: 1.99
4f( 0.00) rc: 2.49
For O, standard SIESTA heuristics set lmxkb to 3
 (one more than the basis l, including polarization orbitals).
Use PS.lmax or PS.KBprojectors blocks to override.
For N, standard SIESTA heuristics set lmxkb to 3
 (one more than the basis l, including polarization orbitals).
Use PS.lmax or PS.KBprojectors blocks to override.
For Si, standard SIESTA heuristics set lmxkb to 3
 (one more than the basis l, including polarization orbitals).
Use PS.lmax or PS.KBprojectors blocks to override.
For H, standard SIESTA heuristics set lmxkb to 2
 (one more than the basis l, including polarization orbitals).
Use PS.lmax or PS.KBprojectors blocks to override.

<basis_specs>
O                    Z=   8    Mass=  16.000        Charge= 0.17977+309
Lmxo=1 Lmxkb= 3    BasisType=split      Semic=F
L=0  Nsemic=0  Cnfigmx=2
          i=1  nzeta=2  polorb=0  (2s)
            splnorm:   0.28000
               vcte:    0.0000
               rinn:    0.0000
               qcoe:    0.0000
               qyuk:    0.0000
               qwid:   0.10000E-01
                rcs:    0.0000      0.0000
            lambdas:    1.0000      1.0000
L=1  Nsemic=0  Cnfigmx=2
          i=1  nzeta=2  polorb=1  (2p)
            splnorm:   0.28000
               vcte:    0.0000
               rinn:    0.0000
               qcoe:    0.0000
               qyuk:    0.0000
               qwid:   0.10000E-01
                rcs:    0.0000      0.0000
            lambdas:    1.0000      1.0000
L=0  Nkbl=1  erefs: 0.17977+309
L=1  Nkbl=1  erefs: 0.17977+309
L=2  Nkbl=1  erefs: 0.17977+309
L=3  Nkbl=1  erefs: 0.17977+309
</basis_specs>

atom: Called for O                     (Z =   8)

read_vps: Pseudopotential generation method:
read_vps: ATM4.2.7  Troullier-Martins
Valence charge for ps generation:    6.00000

xc_check: Exchange-correlation functional:
xc_check: GGA Perdew, Burke & Ernzerhof 1996
V l=0 = -2*Zval/r beyond r=  1.1000
V l=1 = -2*Zval/r beyond r=  1.1000
V l=2 = -2*Zval/r beyond r=  2.2154
V l=3 = -2*Zval/r beyond r=  1.1000
All V_l potentials equal beyond r=  2.2154
This should be close to max(r_c) in ps generation
All pots = -2*Zval/r beyond r=  2.2154

VLOCAL1: 99.0% of the norm of Vloc inside      8.845 Ry
VLOCAL1: 99.9% of the norm of Vloc inside     20.157 Ry
atom: Maximum radius for 4*pi*r*r*local-pseudopot. charge    2.67231
atom: Maximum radius for r*vlocal+2*Zval:    2.32897
GHOST: No ghost state for L =  0
GHOST: No ghost state for L =  1
GHOST: No ghost state for L =  2
GHOST: No ghost state for L =  3

KBgen: Kleinman-Bylander projectors:
   l= 0   rc=  2.243238   el= -1.759686   Ekb=**********   kbcos= -0.171774
   l= 1   rc=  2.328968   el= -0.663873   Ekb=-14.506792   kbcos= -0.519897
   l= 2   rc=  2.573941   el=  0.002031   Ekb= -1.137373   kbcos= -0.019581
   l= 3   rc=  2.606321   el=  0.003153   Ekb= -1.013546   kbcos= -0.003122

KBgen: Total number of Kleinman-Bylander projectors:   16
atom: -------------------------------------------------------------------------

atom: SANKEY-TYPE ORBITALS:
atom: Selected multiple-zeta basis: split

SPLIT: Orbitals with angular momentum L= 0

SPLIT: Basis orbitals for state 2s

SPLIT: PAO cut-off radius determined from an
SPLIT: energy shift=  0.002000 Ry

   izeta = 1
                 lambda =    1.000000
                     rc =    4.243912
                 energy =   -1.758270
                kinetic =    3.286084
    potential(screened) =   -5.044353
       potential(ionic) =  -12.921184

   izeta = 2
                 rmatch =    2.187845
              splitnorm =    0.280000
                 energy =   -0.885018
                kinetic =    8.134434
    potential(screened) =   -9.019452
       potential(ionic) =  -17.710645

[...]

SPLIT: Basis orbitals for state 2p

[...]

POLgen: Perturbative polarization orbital with L=  2

POLgen: Polarization orbital for state 2p

   izeta = 1
                     rc =    5.314825
                 energy =    1.970580
                kinetic =    3.886128
    potential(screened) =   -1.915547
       potential(ionic) =   -7.749584
atom: Total number of Sankey-type orbitals: 13

atm_pop: Valence configuration (for local Pseudopot. screening):
 2s( 2.00)
 2p( 4.00)
Vna: chval, zval:    6.00000   6.00000

Vna:  Cut-off radius for the neutral-atom potential:   5.314825

atom: _________________________________________________________________________

[...]

KBgen: Kleinman-Bylander projectors:
   l= 0   rc=  3.417763   el= -1.365098   Ekb= -4.433130   kbcos= -0.707855
   l= 1   rc=  3.375302   el= -0.521201   Ekb=-13.264039   kbcos= -0.535594
   l= 2   rc=  3.872880   el=  0.001991   Ekb= -0.641094   kbcos= -0.062456
   l= 3   rc=  3.970931   el=  0.003093   Ekb= -0.474517   kbcos= -0.018236

[...]

<basis_specs>
Si                   Z=  14    Mass=  28.090        Charge= 0.17977+309
Lmxo=1 Lmxkb= 3    BasisType=split      Semic=F
L=0  Nsemic=0  Cnfigmx=3
          i=1  nzeta=2  polorb=0  (3s)
            splnorm:   0.28000
               vcte:    0.0000
               rinn:    0.0000
               qcoe:    0.0000
               qyuk:    0.0000
               qwid:   0.10000E-01
                rcs:    0.0000      0.0000
            lambdas:    1.0000      1.0000
L=1  Nsemic=0  Cnfigmx=3
          i=1  nzeta=2  polorb=1  (3p)
            splnorm:   0.28000
               vcte:    0.0000
               rinn:    0.0000
               qcoe:    0.0000
               qyuk:    0.0000
               qwid:   0.10000E-01
                rcs:    0.0000      0.0000
            lambdas:    1.0000      1.0000
L=0  Nkbl=1  erefs: 0.17977+309
L=1  Nkbl=1  erefs: 0.17977+309
L=2  Nkbl=1  erefs: 0.17977+309
L=3  Nkbl=1  erefs: 0.17977+309
</basis_specs>

[...]

KBgen: Kleinman-Bylander projectors:
   l= 0   rc=  3.075247   el= -0.794092   Ekb=  5.879390   kbcos=  0.167461
   l= 1   rc=  3.153101   el= -0.300068   Ekb=  2.642817   kbcos=  0.058301
   l= 2   rc=  3.273594   el=  0.001958   Ekb= -1.185135   kbcos= -0.104411
   l= 3   rc=  3.232927   el=  0.003046   Ekb= -0.497174   kbcos= -0.015889

[...]

SPLIT: Basis orbitals for state 3p

[...]

POLgen: Polarization orbital for state 3p

[...]

atm_pop: Valence configuration (for local Pseudopot. screening):
 3s( 2.00)
 3p( 2.00)
Vna: chval, zval:    4.00000   4.00000

[...]

<basis_specs>
H                    Z=   1    Mass=  1.0100        Charge= 0.17977+309
Lmxo=0 Lmxkb= 2    BasisType=split      Semic=F
L=0  Nsemic=0  Cnfigmx=1
          i=1  nzeta=2  polorb=1  (1s)
            splnorm:   0.62000
               vcte:    0.0000
               rinn:    0.0000
               qcoe:    0.0000
               qyuk:    0.0000
               qwid:   0.10000E-01
                rcs:    0.0000      0.0000
            lambdas:    1.0000      1.0000
L=0  Nkbl=1  erefs: 0.17977+309
L=1  Nkbl=1  erefs: 0.17977+309
L=2  Nkbl=1  erefs: 0.17977+309
</basis_specs>

atom: Called for H                     (Z =   1)

read_vps: Pseudopotential generation method:
read_vps: ATM4.2.7  Troullier-Martins
Valence charge for ps generation:    1.00000

xc_check: Exchange-correlation functional:
xc_check: GGA Perdew, Burke & Ernzerhof 1996
V l=0 = -2*Zval/r beyond r=  0.0098
V l=1 = -2*Zval/r beyond r=  0.5817
V l=2 = -2*Zval/r beyond r=  1.9372
[...]
   scf:   29    -4097.566317    -4097.566317    -4097.566317  0.000003 -3.686485  0.000025
     spin moment: S , {S} =    0.00000  -0.00000  -0.00000  -0.00000
   scf:   30    -4097.566317    -4097.566317    -4097.566317  0.000003 -3.686483  0.000015
     spin moment: S , {S} =    0.00000  -0.00000  -0.00000  -0.00000
   scf:   31    -4097.566317    -4097.566317    -4097.566317  0.000001 -3.686482  0.000010
     spin moment: S , {S} =    0.00000  -0.00000  -0.00000  -0.00000
   scf:   32    -4097.566317    -4097.566317    -4097.566317  0.000001 -3.686482  0.000005
     spin moment: S , {S} =    0.00000  -0.00000  -0.00000  -0.00000
   scf:   33    -4097.566317    -4097.566317    -4097.566317  0.000001 -3.686482  0.000002
     spin moment: S , {S} =    0.00000  -0.00000  -0.00000  -0.00000
   scf:   34    -4097.566317    -4097.566317    -4097.566317  0.000000 -3.686482  0.000002
     spin moment: S , {S} =    0.00000  -0.00000  -0.00000  -0.00000
   scf:   35    -4097.566317    -4097.566317    -4097.566317  0.000000 -3.686483  0.000002
     spin moment: S , {S} =    0.00000  -0.00000   0.00000  -0.00000
   scf:   36    -4097.566317    -4097.566317    -4097.566317  0.000000 -3.686483  0.000001
     spin moment: S , {S} =    0.00000  -0.00000   0.00000  -0.00000
   scf:   37    -4097.566317    -4097.566317    -4097.566317  0.000000 -3.686483  0.000001
     spin moment: S , {S} =    0.00000  -0.00000   0.00000  -0.00000
   scf:   38    -4097.566317    -4097.566317    -4097.566317  0.000000 -3.686482  0.000001
     spin moment: S , {S} =    0.00000  -0.00000  -0.00000  -0.00000

SCF Convergence by DM+H criterion
max |DM_out - DM_in|         :     0.0000001115
max |H_out - H_in|      (eV) :     0.0000006365
SCF cycle converged after 38 iterations

Using DM_out to compute the final energy and forces
No. of atoms with KB's overlaping orbs in proc 0. Max # of overlaps:      29     232

siesta: E_KS(eV) =            -4097.5663

siesta: E_KS - E_eggbox =     -4097.5663
     spin moment: S , {S} =    0.00000  -0.00000  -0.00000  -0.00000

siesta: Atomic forces (eV/Ang):
     1 -171.699907 -125.441282   -0.000000
     2   -0.123696   -0.023370    0.000000
     3   -5.561855   -2.264309   -0.000000
     4   -1.962138   -0.321875   -0.000000
     5   -0.255608    0.156335   -0.000000
     6  -19.995334  -13.366182   -0.000000
     7   -0.186685    0.695171   -0.000000
     8    0.933048   -0.754627    0.000000
     9   -0.751886   -4.750337   -0.000000
    10    1.576476   -1.240517    0.000000
    11    0.059041    0.032738    0.000000
    12   -0.096588    0.254918    0.000000
    13    0.111043    0.130715   -0.000000
    14   -0.775721   -0.422845    0.000000
    15  -37.586479  -24.802833   -0.000000
    16    0.128217    0.116934    0.000000
    17   -1.433988    3.856647   -0.000000
    18    0.511642   -0.730095   -0.000000
    19    2.108557    3.976769    0.000000
    20    0.222736    1.277986    0.000000
    21    4.832853    0.967411    0.000000
    22   28.836391   20.064462    0.000000
    23   -0.716737   -1.125854    0.000000
    24   -0.118423    0.098382   -0.000000
    25    0.086005   -0.243092   -0.000000
    26    0.621672    0.655046   -0.000000
    27  144.185760  101.924469    0.000000
    28   58.804294   40.879782    0.000000
    29    0.194632    0.101441    0.000000
   Tot    1.947322   -0.298012    0.000000
   Max  171.699907
   Res   31.349158    sqrt( Sum f_i^2 / 3N )
   Max  171.699907    constrained

Stress tensor Voigt[x,y,z,yz,xz,xy] (kbar):      -59.45      -34.32       -0.08       -0.00       -0.00      -46.18
(Free)E + p*V (eV/cell)    -4016.8779
Target enthalpy (eV/cell)    -4097.5663

mulliken: Atomic and Orbital Populations:

Species: O

Atom      Orb        Charge      Spin       Svec
    1  9 3Pdxy      0.01991   0.00000     -0.000  -0.000   0.000
    1 10 3Pdyz      0.00904   0.00000      0.000  -0.000   0.000
    1 11 3Pdz2      0.00613   0.00000     -0.000   0.000   0.000
    1 12 3Pdxz      0.00805   0.00000     -0.000   0.000   0.000
    1 13 3Pdx2-y2   0.01328   0.00000      0.000   0.000   0.000
    1     Total     6.43845   0.00000      0.000   0.000   0.000

   28  9 3Pdxy      0.01771   0.00000     -0.000   0.000   0.000
   28 10 3Pdyz      0.00860   0.00000      0.000   0.000  -0.000
   28 11 3Pdz2      0.00419   0.00000      0.000  -0.000  -0.000
   28 12 3Pdxz      0.00503   0.00000     -0.000   0.000   0.000
   28 13 3Pdx2-y2   0.01012   0.00000      0.000   0.000  -0.000
   28     Total     6.35006   0.00000     -0.000   0.000  -0.000

Total              12.78851   0.00000     -0.000   0.000   0.000

[...]

Atom      Orb        Charge      Spin       Svec
    7  9 3Pdxy      0.24249   0.00000      0.000  -0.000  -0.000
    7 10 3Pdyz      0.03252   0.00000      0.000   0.000  -0.000
    7 11 3Pdz2      0.01457   0.00000     -0.000  -0.000  -0.000
    7 12 3Pdxz      0.14215   0.00000      0.000  -0.000   0.000
    7 13 3Pdx2-y2   0.12034   0.00000     -0.000  -0.000   0.000
    7     Total     3.84820   0.00000     -0.000   0.000   0.000

[...]

   20  9 3Pdxy      0.09883   0.00000     -0.000  -0.000   0.000
   20 10 3Pdyz      0.11789   0.00000     -0.000   0.000  -0.000
   20 11 3Pdz2      0.01284   0.00000     -0.000  -0.000  -0.000
   20 12 3Pdxz      0.02604   0.00000     -0.000  -0.000   0.000
   20 13 3Pdx2-y2   0.19868   0.00000      0.000  -0.000  -0.000
   20     Total     3.57823   0.00000      0.000   0.000   0.000

[...]

Species: H

Atom      Orb        Charge      Spin       Svec
   12  3 2Ppy       0.10631   0.00000     -0.000  -0.000  -0.000
   12  4 2Ppz       0.06391   0.00000     -0.000   0.000  -0.000
   12  5 2Ppx       0.11800   0.00000     -0.000  -0.000  -0.000
   12     Total     0.91989   0.00000     -0.000  -0.000  -0.000

   13  3 2Ppy       0.01989   0.00000      0.000  -0.000  -0.000
   13  4 2Ppz       0.01944   0.00000      0.000  -0.000  -0.000
   13  5 2Ppx       0.03322   0.00000      0.000   0.000  -0.000
   13     Total     1.18958   0.00000      0.000   0.000   0.000

[...]

   29  3 2Ppy       0.02521   0.00000     -0.000  -0.000   0.000
   29  4 2Ppz       0.03594   0.00000     -0.000   0.000   0.000
   29  5 2Ppx       0.02935   0.00000      0.000  -0.000  -0.000
   29     Total     0.77395   0.00000     -0.000   0.000   0.000

Total              98.00000   0.00000     -0.000  -0.000  -0.000

siesta: Eigenvalues (eV):
ik =     1
  -32.4178  -32.4178  -29.1510  -29.1510  -21.9502  -21.9502  -21.5030  -21.5030  -21.1859  -21.1859
  -20.2588  -20.2588  -19.8436  -19.8436  -19.3272  -19.3272  -19.1954  -19.1954  -19.0340  -19.0340
  -17.0928  -17.0928  -15.8983  -15.8983  -14.4920  -14.4920  -13.6452  -13.6452  -13.5199  -13.5199
  -13.0762  -13.0762  -12.9901  -12.9901  -12.5640  -12.5640  -12.2304  -12.2304  -12.0700  -12.0700
  -11.6254  -11.6254  -11.0132  -11.0132  -10.6482  -10.6482  -10.4264  -10.4264  -10.3929  -10.3929
  -10.1708  -10.1708  -10.1154  -10.1154   -9.9309   -9.9309   -9.4215   -9.4215   -9.1789   -9.1789
   -8.8961   -8.8961   -8.6216   -8.6216   -8.5567   -8.5567   -8.4600   -8.4600   -8.3078   -8.3078
   -8.0588   -8.0588   -7.9364   -7.9364   -7.3826   -7.3826   -7.3771   -7.3771   -6.6884   -6.6884
   -6.3913   -6.3913   -6.3140   -6.3140   -5.9211   -5.9211   -5.9012   -5.9012   -5.2793   -5.2793
   -5.1717   -5.1717   -4.4990   -4.4990   -4.3217   -4.3217   -4.2882   -4.2882   -3.0917   -3.0917
   -2.6446   -2.6446   -2.4419   -2.4419   -2.3184   -2.3184   -2.2048   -2.2048   -2.0384   -2.0384
   -1.9835   -1.9835   -1.5907   -1.5907   -1.5698   -1.5698   -1.1198   -1.1198   -0.8958   -0.8958
   -0.8622   -0.8622   -0.7217   -0.7217   -0.4686   -0.4686   -0.2406   -0.2406    0.3548    0.3548
    0.4785    0.4785    0.5335    0.5335    0.6099    0.6099    0.8068    0.8068    1.1286    1.1286
    1.3935    1.3935    1.5445    1.5445    1.5526    1.5526    1.5893    1.5893    2.0583    2.0583
    2.3391    2.3391    2.4787    2.4787    2.6051    2.6051    2.7440    2.7440    3.0151    3.0151
    3.0510    3.0510    3.2565    3.2565    3.4043    3.4043    3.6711    3.6711    3.7170    3.7170
    4.0136    4.0136    4.0251    4.0251    4.3984    4.3984    4.4547    4.4547    4.6444    4.6444
    4.8070    4.8070    4.8381    4.8381    4.9788    4.9788    5.2621    5.2621    5.4167    5.4167
    5.4892    5.4892    5.6161    5.6161    5.7054    5.7054    5.8982    5.8982    5.9113    5.9113
    6.0828    6.0828    6.3526    6.3526    6.5110    6.5110    6.6384    6.6384    6.8067    6.8067
    7.1204    7.1204    7.1934    7.1934    7.2156    7.2156    7.7101    7.7101    7.7733    7.7733
    7.7987    7.7987    7.8888    7.8888    8.1425    8.1425    8.2446    8.2446    8.3172    8.3172
    8.4560    8.4560    8.7077    8.7077    8.7855    8.7855    8.8294    8.8294    9.1391    9.1391
    9.3760    9.3760    9.3792    9.3792    9.7665    9.7665    9.8487    9.8487   10.0619   10.0619
   10.2720   10.2720   10.3934   10.3934   10.5122   10.5122   10.8141   10.8141   11.0773   11.0773
   11.3464   11.3464   11.4740   11.4740   11.5571   11.5571   11.6189   11.6189   12.1412   12.1412
   12.2286   12.2286   12.5098   12.5098   12.7738   12.7738   12.8472   12.8472   12.9073   12.9073
   13.1539   13.1539   13.6392   13.6392   13.7256   13.7256   14.0705   14.0705   14.0935   14.0935
   14.3850   14.3850   14.5876   14.5876   14.8504   14.8504   15.1507   15.1507   15.3591   15.3591
   16.1930   16.1930   16.4599   16.4599   16.8315   16.8315   16.9827   16.9827   17.2680   17.2680
   17.8262   17.8262   18.0226   18.0226   18.4908   18.4908   18.9373   18.9373   19.3930   19.3930
   19.9718   19.9718   19.9770   19.9770   20.0644   20.0644   20.5434   20.5434   21.1509   21.1509
   21.2181   21.2181   21.8462   21.8462   22.2293   22.2293   22.3546   22.3546   22.3936   22.3936
   22.5843   22.5843   23.2838   23.2838   23.6817   23.6817   23.9436   23.9436   24.6387   24.6387
   25.0575   25.0575   25.2036   25.2036   25.9919   25.9919   26.6906   26.6906   27.9097   27.9097
   27.9279   27.9279   29.1888   29.1888   29.5040   29.5040   29.7574   29.7574   29.8932   29.8932
   30.4708   30.4708   30.6727   30.6727   30.8070   30.8070   31.0389   31.0389   31.1971   31.1971
   31.8175   31.8175   32.0102   32.0102   32.2717   32.2717   32.7031   32.7031   33.5957   33.5957
   34.1596   34.1596   34.2714   34.2714   34.6446   34.6446   34.9677   34.9677   36.2726   36.2726
   37.0284   37.0284   37.0825   37.0825   37.1411   37.1411   38.1478   38.1478   38.6767   38.6767
   38.8718   38.8718   39.5153   39.5153   39.6079   39.6079   39.9220   39.9220   40.1212   40.1212
   40.6845   40.6845   40.7846   40.7846   41.1851   41.1851   41.6598   41.6598   42.0973   42.0973
   42.8080   42.8080   42.8141   42.8141   43.2227   43.2227   43.3618   43.3618   43.3921   43.3921
   43.7855   43.7855   44.6371   44.6371   44.6605   44.6605   44.9105   44.9105   45.7535   45.7535
   45.8691   45.8691   46.2751   46.2751   46.3171   46.3171   46.9806   46.9806   47.2899   47.2899
   47.5118   47.5118   47.6783   47.6783   48.4520   48.4520   48.7020   48.7020   48.8321   48.8321
   49.7279   49.7279   50.3722   50.3722   50.4374   50.4374   50.6026   50.6026   52.2517   52.2517
   52.3195   52.3195   53.5909   53.5909   54.2042   54.2042   54.6196   54.6196   54.8212   54.8212
   54.9472   54.9472   55.5195   55.5195   56.2107   56.2107   56.9182   56.9182   57.3384   57.3384
   57.8323   57.8323   57.8902   57.8902   59.9278   59.9278   60.1212   60.1212   61.0507   61.0507
   61.5449   61.5449   62.1508   62.1508   63.1368   63.1368   63.5416   63.5416   65.3288   65.3288
   65.9176   65.9176   67.2681   67.2681   67.8978   67.8978   68.5087   68.5087   69.5536   69.5536
   70.4114   70.4114   71.3330   71.3330   72.7784   72.7784   73.4756   73.4756   76.4351   76.4351
   76.5756   76.5756   78.7983   78.7983   79.7422   79.7422   84.7003   84.7003   85.7226   85.7226
   85.7647   85.7647   91.6544   91.6544   92.8059   92.8059   93.7660   93.7660   95.8664   95.8664
   98.8482   98.8482  100.8104  100.8104  104.8985  104.8985  108.2576  108.2576  113.1497  113.1497
  119.3136  119.3136  121.6179  121.6179  127.5051  127.5051  131.0865  131.0865  132.3126  132.3126
  137.3505  137.3505  143.5615  143.5615  147.0394  147.0394  155.5703  155.5703  172.1617  172.1617
  244.6236  244.6236  415.5074  415.5074
siesta: Fermi energy =      -3.686482 eV

siesta: Program's energy decomposition (eV):
siesta: Ebs     =     -1185.484774
siesta: Eions   =      3585.165840
siesta: Ena     =       467.279200
siesta: Ekin    =      3031.016629
siesta: Enl     =     -2929.098482
siesta: Eso     =        -0.004515
siesta: Edftu   =         0.000000
siesta: DEna    =        47.508153
siesta: DUscf   =        16.791294
siesta: DUext   =         0.000000
siesta: Exc     =     -1145.892756
siesta: eta*DQ  =         0.000000
siesta: Emadel  =         0.000000
siesta: Emeta   =         0.000000
siesta: Emolmec =         0.000000
siesta: Ekinion =         0.000000
siesta: Eharris =     -4097.566317
siesta: Etot    =     -4097.566317
siesta: FreeEng =     -4097.566317

siesta: Final energy (eV):
siesta:  Band Struct. =   -1185.484774
siesta:       Kinetic =    3031.016629
siesta:       Hartree =    9891.972739
siesta:       Edftu   =       0.000000
siesta:       Eso     =      -0.004515
siesta:    Ext. field =       0.000000
siesta:   Exch.-corr. =   -1145.892756
siesta:  Ion-electron =  -22512.064114
siesta:       Ion-ion =    6637.405700
siesta:       Ekinion =       0.000000
siesta:         Total =   -4097.566317
siesta:         Fermi =      -3.686482

siesta: Atomic forces (eV/Ang):
siesta:      1 -171.699907 -125.441282   -0.000000
siesta:      2   -0.123696   -0.023370    0.000000
siesta:      3   -5.561855   -2.264309   -0.000000
siesta:      4   -1.962138   -0.321875   -0.000000
siesta:      5   -0.255608    0.156335   -0.000000
siesta:      6  -19.995334  -13.366182   -0.000000
siesta:      7   -0.186685    0.695171   -0.000000
siesta:      8    0.933048   -0.754627    0.000000
siesta:      9   -0.751886   -4.750337   -0.000000
siesta:     10    1.576476   -1.240517    0.000000
siesta:     11    0.059041    0.032738    0.000000
siesta:     12   -0.096588    0.254918    0.000000
siesta:     13    0.111043    0.130715   -0.000000
siesta:     14   -0.775721   -0.422845    0.000000
siesta:     15  -37.586479  -24.802833   -0.000000
siesta:     16    0.128217    0.116934    0.000000
siesta:     17   -1.433988    3.856647   -0.000000
siesta:     18    0.511642   -0.730095   -0.000000
siesta:     19    2.108557    3.976769    0.000000
siesta:     20    0.222736    1.277986    0.000000
siesta:     21    4.832853    0.967411    0.000000
siesta:     22   28.836391   20.064462    0.000000
siesta:     23   -0.716737   -1.125854    0.000000
siesta:     24   -0.118423    0.098382   -0.000000
siesta:     25    0.086005   -0.243092   -0.000000
siesta:     26    0.621672    0.655046   -0.000000
siesta:     27  144.185760  101.924469    0.000000
siesta:     28   58.804294   40.879782    0.000000
siesta:     29    0.194632    0.101441    0.000000
siesta: ----------------------------------------
siesta:    Tot    1.947322   -0.298012    0.000000

siesta: Stress tensor (static) (eV/Ang**3):
siesta:    -0.037107   -0.028820   -0.000000
siesta:    -0.028820   -0.021420   -0.000000
siesta:    -0.000000   -0.000000   -0.000053

siesta: Cell volume =       4132.210452 Ang**3

siesta: Pressure (static):
siesta:                Solid            Molecule  Units
siesta:           0.00021267          0.00000749  Ry/Bohr**3
siesta:           0.01952669          0.00068730  eV/Ang**3
siesta:          31.28554529          1.10118975  kBar
(Free)E+ p_basis*V_orbitals  =       -4077.715900
(Free)Eharris+ p_basis*V_orbitals  =       -4077.715900
     spin moment: S , {S} =    0.00000  -0.00000  -0.00000  -0.00000

siesta: Electric dipole (a.u.)  =    1.206573    0.152992    0.000000
siesta: Electric dipole (Debye) =    3.066805    0.388866    0.000000

cite: Please see "GC.bib" for an exhaustive BiBTeX file.
cite: Please clearly indicate Siesta version in published work: v4.1.5-1-g384057250
cite: This calculation has made use of the following articles
cite: which are encouraged to be cited in a published work.
        Primary SIESTA paper
          DOI: www.doi.org/10.1088/0953-8984/14/11/302
        Spin-orbit coupling (on-site approximation)
          DOI: www.doi.org/10.1088/0953-8984/19/19/489001

WARNING: alloc-realloc-dealloc name mismatch
         Name: atomlist isa
         Node:     0
         Subsequent mismatches will not be reported
>> End of run:  22-MAY-2023  16:12:15
Job completed