>> Start of run:  16-OCT-2023  20:30:14

reinit: Reading from standard input
reinit: Dumped input in INPUT_TMP.28242
************************** Dump of input data file ****************************
# mpirun -np 4 siesta-4.1.5 < AT.fdf > AT.out &
SystemLabel      AT
NumberOfAtoms    30
NumberOfSpecies  4
%block ChemicalSpeciesLabel
    1    1  H
    2    7  N
    3   14  Si
    4    8  O
%endblock ChemicalSpeciesLabel
# This overrides Defaults.fdf configuration
MD.TypeOfRun                Verlet # CG, Verlet
MD.Steps                    0
MaxSCFIterations            300
AtomicCoordinatesFormat NotScaledCartesianAng
%block AtomicCoordinatesAndAtomicSpecies
    2.28494382 -5.19529124 0.0  1  1  H
    1.37433094 -4.6647107 0.0  2  2  N
    -0.21830245 -5.49458215 0.0  3  3  Si
    -0.17484108 -6.98516892 0.0  1  4  H
    -1.66171682 -4.58600741 0.0  2  5  N
    -1.09026419 -2.87456374 0.0  3  6  Si
    -1.53038332 -0.70765692 0.0  3  7  Si
    -3.14415959 -0.09186471 0.0  2  8  N
    -3.40268075 0.95848335 0.0  1  9  H
    -3.95073599 -0.76720972 0.0  1  10  H
    -0.17836637 0.41349951 0.0  2  11  N
    1.49520211 -0.0473996 0.0  3  12  Si
    2.45603905 1.10727302 0.0  1  13  H
    2.30451743 -1.58574382 0.0  2  14  N
    1.10725559 -2.84610319 0.0  3  15  Si
    0.4543466751862524 8.378061431354931 0.0  1  16  H
    -0.35436400481374764 7.68585555135493 0.0  2  17  N
    -2.0109538448137476 8.398975651354931 0.0  3  18  Si
    -1.9140886748137476 9.90970086135493 0.0  1  19  H
    -3.7371101948137473 7.0559275213549295 0.0  3  20  Si
    -6.091564444813748 7.04794059135493 0.0  3  21  Si
    -6.653982564813748 7.7824302413549304 -1.20183078  1  22  H
    -6.391378194813748 5.5688494613549295 -0.08618332  1  23  H
    -6.654095024813747 7.61277305135493 1.28814761  1  24  H
    -2.8077195548137475 4.985356291354931 0.0  3  25  Si
    -3.7571879148137475 3.69682016135493 0.0  4  26  O
    -1.0167746848137476 4.81162082135493 0.0  2  27  N
    -0.6857833248137476 3.7792638413549304 0.0  1  28  H
    0.29168353518625234 6.00616724135493 0.0  3  29  Si
    1.8576204651862522 5.738920391354931 0.0  4  30  O
%endblock AtomicCoordinatesAndAtomicSpecies
%include ../../../../Defaults.fdf
************************** End of input data file *****************************

reinit: -----------------------------------------------------------------------
reinit: System Name:
reinit: -----------------------------------------------------------------------
reinit: System Label: AT
reinit: -----------------------------------------------------------------------

initatom: Reading input for the pseudopotentials and atomic orbitals ----------
Species number:   1 Atomic number:    1 Label: H
Species number:   2 Atomic number:    7 Label: N
Species number:   3 Atomic number:   14 Label: Si
Species number:   4 Atomic number:    8 Label: O

Ground state valence configuration:   1s01
Reading pseudopotential information in formatted form from H.psf

Pseudopotential generated from a relativistic atomic calculation

Valence configuration for pseudopotential generation:
1s( 1.00) rc: 0.01
2p( 0.00) rc: 0.60
3d( 0.00) rc: 1.99
4f( 0.00) rc: 2.49
Ground state valence configuration:   2s02  2p03
Reading pseudopotential information in formatted form from N.psf

[...]

Valence configuration for pseudopotential generation:
3s( 2.00) rc: 1.67
3p( 2.00) rc: 2.04
3d( 0.00) rc: 2.89
4f( 0.00) rc: 2.49
Ground state valence configuration:   2s02  2p04
Reading pseudopotential information in formatted form from O.psf

Pseudopotential generated from a relativistic atomic calculation

Valence configuration for pseudopotential generation:
2s( 2.00) rc: 0.45
2p( 4.00) rc: 0.92
3d( 0.00) rc: 2.24
4f( 0.00) rc: 0.25
For H, standard SIESTA heuristics set lmxkb to 2
 (one more than the basis l, including polarization orbitals).
Use PS.lmax or PS.KBprojectors blocks to override.
For N, standard SIESTA heuristics set lmxkb to 3
 (one more than the basis l, including polarization orbitals).
Use PS.lmax or PS.KBprojectors blocks to override.
For Si, standard SIESTA heuristics set lmxkb to 3
 (one more than the basis l, including polarization orbitals).
Use PS.lmax or PS.KBprojectors blocks to override.
For O, standard SIESTA heuristics set lmxkb to 3
 (one more than the basis l, including polarization orbitals).
Use PS.lmax or PS.KBprojectors blocks to override.

<basis_specs>
H                    Z=   1    Mass=  1.0100        Charge= 0.17977+309
Lmxo=0 Lmxkb= 2    BasisType=split      Semic=F
L=0  Nsemic=0  Cnfigmx=1
          i=1  nzeta=2  polorb=1  (1s)
            splnorm:   0.62000
               vcte:    0.0000
               rinn:    0.0000
               qcoe:    0.0000
               qyuk:    0.0000
               qwid:   0.10000E-01
                rcs:    0.0000      0.0000
            lambdas:    1.0000      1.0000
L=0  Nkbl=1  erefs: 0.17977+309
L=1  Nkbl=1  erefs: 0.17977+309
L=2  Nkbl=1  erefs: 0.17977+309
</basis_specs>

atom: Called for H                     (Z =   1)

read_vps: Pseudopotential generation method:
read_vps: ATM4.2.7  Troullier-Martins
Valence charge for ps generation:    1.00000

xc_check: Exchange-correlation functional:
xc_check: GGA Perdew, Burke & Ernzerhof 1996
V l=0 = -2*Zval/r beyond r=  0.0098
V l=1 = -2*Zval/r beyond r=  0.5817
V l=2 = -2*Zval/r beyond r=  1.9372
All V_l potentials equal beyond r=  1.9372
This should be close to max(r_c) in ps generation
All pots = -2*Zval/r beyond r=  1.9372

VLOCAL1: 99.0% of the norm of Vloc inside     11.567 Ry
VLOCAL1: 99.9% of the norm of Vloc inside     26.362 Ry
atom: Maximum radius for 4*pi*r*r*local-pseudopot. charge    2.25106
atom: Maximum radius for r*vlocal+2*Zval:    1.91306
GHOST: No ghost state for L =  0
GHOST: No ghost state for L =  1
GHOST: No ghost state for L =  2

KBgen: Kleinman-Bylander projectors:
   l= 0   rc=  2.036604   el= -0.477180   Ekb= -6.081590   kbcos= -0.277285
   l= 1   rc=  2.195416   el=  0.001076   Ekb= -0.926943   kbcos= -0.034643
   l= 2   rc=  2.251056   el=  0.002010   Ekb= -0.130941   kbcos= -0.009788

KBgen: Total number of Kleinman-Bylander projectors:    9
atom: -------------------------------------------------------------------------

atom: SANKEY-TYPE ORBITALS:
atom: Selected multiple-zeta basis: split

SPLIT: Orbitals with angular momentum L= 0

SPLIT: Basis orbitals for state 1s

SPLIT: PAO cut-off radius determined from an
SPLIT: energy shift=  0.002000 Ry

   izeta = 1
                 lambda =    1.000000
                     rc =    6.518340
                 energy =   -0.475305
                kinetic =    0.912139
    potential(screened) =   -1.387444
       potential(ionic) =   -1.907295

   izeta = 2
                 rmatch =    2.141150
              splitnorm =    0.620000
                 energy =    0.566467
                kinetic =    3.772856
    potential(screened) =   -3.206389
       potential(ionic) =   -3.759093

POLgen: Perturbative polarization orbital with L=  1

POLgen: Polarization orbital for state 1s

   izeta = 1
                     rc =    6.518340
                 energy =    0.533861
                kinetic =    1.121086
    potential(screened) =   -0.587225
       potential(ionic) =   -1.053027
atom: Total number of Sankey-type orbitals:  5

atm_pop: Valence configuration (for local Pseudopot. screening):
 1s( 1.00)
Vna: chval, zval:    1.00000   1.00000

Vna:  Cut-off radius for the neutral-atom potential:   6.518340

atom: _________________________________________________________________________

<basis_specs>
N                    Z=   7    Mass=  14.010        Charge= 0.17977+309
Lmxo=1 Lmxkb= 3    BasisType=split      Semic=F
L=0  Nsemic=0  Cnfigmx=2
          i=1  nzeta=2  polorb=0  (2s)
            splnorm:   0.28000
               vcte:    0.0000
               rinn:    0.0000
               qcoe:    0.0000
               qyuk:    0.0000
               qwid:   0.10000E-01
                rcs:    0.0000      0.0000
            lambdas:    1.0000      1.0000
L=1  Nsemic=0  Cnfigmx=2
          i=1  nzeta=2  polorb=1  (2p)
            splnorm:   0.28000
               vcte:    0.0000
               rinn:    0.0000
               qcoe:    0.0000
               qyuk:    0.0000
               qwid:   0.10000E-01
                rcs:    0.0000      0.0000
            lambdas:    1.0000      1.0000
L=0  Nkbl=1  erefs: 0.17977+309
L=1  Nkbl=1  erefs: 0.17977+309
L=2  Nkbl=1  erefs: 0.17977+309
L=3  Nkbl=1  erefs: 0.17977+309
</basis_specs>

[...]

KBgen: Kleinman-Bylander projectors:
   l= 0   rc=  3.417763   el= -1.365098   Ekb= -4.433130   kbcos= -0.707855
   l= 1   rc=  3.375302   el= -0.521201   Ekb=-13.264039   kbcos= -0.535594
   l= 2   rc=  3.872880   el=  0.001991   Ekb= -0.641094   kbcos= -0.062456
   l= 3   rc=  3.970931   el=  0.003093   Ekb= -0.474517   kbcos= -0.018236

[...]

SPLIT: Basis orbitals for state 2p

[...]

POLgen: Polarization orbital for state 2p

[...]

atm_pop: Valence configuration (for local Pseudopot. screening):
 2s( 2.00)
 2p( 3.00)
Vna: chval, zval:    5.00000   5.00000

[...]

KBgen: Kleinman-Bylander projectors:
   l= 0   rc=  3.075247   el= -0.794092   Ekb=  5.879390   kbcos=  0.167461
   l= 1   rc=  3.153101   el= -0.300068   Ekb=  2.642817   kbcos=  0.058301
   l= 2   rc=  3.273594   el=  0.001958   Ekb= -1.185135   kbcos= -0.104411
   l= 3   rc=  3.232927   el=  0.003046   Ekb= -0.497174   kbcos= -0.015889

[...]

<basis_specs>
O                    Z=   8    Mass=  16.000        Charge= 0.17977+309
Lmxo=1 Lmxkb= 3    BasisType=split      Semic=F
L=0  Nsemic=0  Cnfigmx=2
          i=1  nzeta=2  polorb=0  (2s)
            splnorm:   0.28000
               vcte:    0.0000
               rinn:    0.0000
               qcoe:    0.0000
               qyuk:    0.0000
               qwid:   0.10000E-01
                rcs:    0.0000      0.0000
            lambdas:    1.0000      1.0000
L=1  Nsemic=0  Cnfigmx=2
          i=1  nzeta=2  polorb=1  (2p)
            splnorm:   0.28000
               vcte:    0.0000
               rinn:    0.0000
               qcoe:    0.0000
               qyuk:    0.0000
               qwid:   0.10000E-01
                rcs:    0.0000      0.0000
            lambdas:    1.0000      1.0000
L=0  Nkbl=1  erefs: 0.17977+309
L=1  Nkbl=1  erefs: 0.17977+309
L=2  Nkbl=1  erefs: 0.17977+309
L=3  Nkbl=1  erefs: 0.17977+309
</basis_specs>

atom: Called for O                     (Z =   8)

read_vps: Pseudopotential generation method:
read_vps: ATM4.2.7  Troullier-Martins
Valence charge for ps generation:    6.00000

xc_check: Exchange-correlation functional:
xc_check: GGA Perdew, Burke & Ernzerhof 1996
V l=0 = -2*Zval/r beyond r=  1.1000
V l=1 = -2*Zval/r beyond r=  1.1000
V l=2 = -2*Zval/r beyond r=  2.2154
V l=3 = -2*Zval/r beyond r=  1.1000
All V_l potentials equal beyond r=  2.2154
This should be close to max(r_c) in ps generation
All pots = -2*Zval/r beyond r=  2.2154

VLOCAL1: 99.0% of the norm of Vloc inside      8.845 Ry
VLOCAL1: 99.9% of the norm of Vloc inside     20.157 Ry
atom: Maximum radius for 4*pi*r*r*local-pseudopot. charge    2.67231
atom: Maximum radius for r*vlocal+2*Zval:    2.32897
GHOST: No ghost state for L =  0
[...]
     spin moment: S , {S} =    0.00000  -0.00000  -0.00000   0.00000
   scf:   13    -3999.001881    -3999.001674    -3999.001675  0.001241 -3.932019  0.021528
     spin moment: S , {S} =    0.00000  -0.00000  -0.00000   0.00000
   scf:   14    -3999.002059    -3999.001852    -3999.001854  0.001620 -3.931305  0.015710
     spin moment: S , {S} =    0.00000  -0.00000  -0.00000   0.00000
   scf:   15    -3999.002092    -3999.001960    -3999.001961  0.001519 -3.930937  0.011343
     spin moment: S , {S} =    0.00000  -0.00000  -0.00000   0.00000
   scf:   16    -3999.002106    -3999.002020    -3999.002022  0.001499 -3.930844  0.005630
     spin moment: S , {S} =    0.00000  -0.00000  -0.00000   0.00000
   scf:   17    -3999.002051    -3999.002033    -3999.002034  0.000684 -3.930920  0.003641
     spin moment: S , {S} =    0.00000  -0.00000  -0.00000   0.00000
   scf:   18    -3999.002042    -3999.002037    -3999.002038  0.000417 -3.931019  0.001769
     spin moment: S , {S} =    0.00000  -0.00000  -0.00000   0.00000
   scf:   19    -3999.002039    -3999.002038    -3999.002039  0.000221 -3.931035  0.000776
     spin moment: S , {S} =    0.00000  -0.00000  -0.00000   0.00000
   scf:   20    -3999.002038    -3999.002038    -3999.002039  0.000058 -3.931049  0.000500
     spin moment: S , {S} =    0.00000  -0.00000  -0.00000   0.00000
   scf:   21    -3999.002038    -3999.002038    -3999.002039  0.000033 -3.931048  0.000316
     spin moment: S , {S} =    0.00000  -0.00000  -0.00000  -0.00000
   scf:   22    -3999.002038    -3999.002038    -3999.002039  0.000044 -3.931056  0.000153
     spin moment: S , {S} =    0.00000  -0.00000  -0.00000  -0.00000
   scf:   23    -3999.002038    -3999.002038    -3999.002039  0.000014 -3.931059  0.000120
     spin moment: S , {S} =    0.00000  -0.00000  -0.00000  -0.00000
   scf:   24    -3999.002038    -3999.002038    -3999.002039  0.000008 -3.931059  0.000093
     spin moment: S , {S} =    0.00000  -0.00000  -0.00000  -0.00000
mix: Pulay -- resetting history
   scf:   25    -3999.002038    -3999.002038    -3999.002039  0.000008 -3.931058  0.000054
     spin moment: S , {S} =    0.00000  -0.00000  -0.00000  -0.00000
   scf:   26    -3999.002038    -3999.002038    -3999.002039  0.000004 -3.931056  0.000028
     spin moment: S , {S} =    0.00000   0.00000   0.00000  -0.00000
   scf:   27    -3999.002038    -3999.002038    -3999.002039  0.000003 -3.931056  0.000019
     spin moment: S , {S} =    0.00000   0.00000   0.00000  -0.00000
   scf:   28    -3999.002038    -3999.002038    -3999.002039  0.000001 -3.931056  0.000013
     spin moment: S , {S} =    0.00000   0.00000   0.00000  -0.00000
   scf:   29    -3999.002038    -3999.002038    -3999.002039  0.000002 -3.931057  0.000008
     spin moment: S , {S} =    0.00000   0.00000   0.00000   0.00000
   scf:   30    -3999.002038    -3999.002038    -3999.002039  0.000001 -3.931057  0.000004
     spin moment: S , {S} =    0.00000   0.00000   0.00000   0.00000
   scf:   31    -3999.002038    -3999.002038    -3999.002039  0.000000 -3.931058  0.000003
     spin moment: S , {S} =    0.00000   0.00000   0.00000  -0.00000
   scf:   32    -3999.002038    -3999.002038    -3999.002039  0.000000 -3.931058  0.000002
     spin moment: S , {S} =    0.00000   0.00000   0.00000   0.00000
   scf:   33    -3999.002038    -3999.002038    -3999.002039  0.000000 -3.931058  0.000001
     spin moment: S , {S} =    0.00000   0.00000   0.00000   0.00000
   scf:   34    -3999.002038    -3999.002038    -3999.002039  0.000000 -3.931058  0.000001
     spin moment: S , {S} =    0.00000   0.00000   0.00000  -0.00000

SCF Convergence by DM+H criterion
max |DM_out - DM_in|         :     0.0000001612
max |H_out - H_in|      (eV) :     0.0000009312
SCF cycle converged after 34 iterations

Using DM_out to compute the final energy and forces
No. of atoms with KB's overlaping orbs in proc 0. Max # of overlaps:      22     163

siesta: E_KS(eV) =            -3999.0020

siesta: E_KS - E_eggbox =     -3999.0020
     spin moment: S , {S} =    0.00000   0.00000   0.00000  -0.00000

siesta: Atomic forces (eV/Ang):
     1    0.142819   -0.014578   -0.000000
     2   -0.026181    0.019633   -0.000000
     3   -0.022157   -0.005807   -0.000000
     4    0.175315    0.011882   -0.000000
     5   -0.002113   -0.027625    0.000000
     6   -0.139529    0.014179   -0.000000
     7    0.773824    0.019609   -0.000003
     8   -0.516118    1.309973    0.000007
     9    0.182296   -0.799988   -0.000017
    10   -0.154938    0.033552    0.000002
    11   -0.123814   -0.262058    0.000003
    12   -0.217803    0.030587    0.000001
    13   -0.150433    0.043282    0.000000
    14    0.021420   -0.100144   -0.000001
    15    0.078611    0.082012    0.000000
    16   -0.131210   -0.067125   -0.000944
    17    0.026058   -0.057893   -0.000804
    18   -0.115757    0.025209    0.005287
    19    0.035723   -0.102599   -0.001478
    20    0.089905    0.061538   -0.001010
    21    0.027188   -0.017666   -0.006847
    22    0.055827   -0.116923    0.088310
    23   -0.047762    0.149240   -0.016266
    24    0.056350   -0.049000   -0.074543
    25   -0.488269   -0.330119    0.000994
    26   -1.714570   -3.398806    0.000494
    27    0.261482   -0.359798   -0.000548
    28   -0.107850    0.546221   -0.000078
    29    0.115377    0.117242   -0.000208
    30   -1.220438    2.280164    0.000246
   Tot   -3.136747   -0.965806   -0.007401
   Max    3.398806
   Res    0.534596    sqrt( Sum f_i^2 / 3N )
   Max    3.398806    constrained

Stress tensor Voigt[x,y,z,yz,xz,xy] (kbar):        0.33        1.07       -0.05       -0.02        0.00        0.27
(Free)E + p*V (eV/cell)    -4000.3802
Target enthalpy (eV/cell)    -3999.0020

siesta: Stress tensor (static) (eV/Ang**3):
         0.000203    0.000167    0.000001
         0.000167    0.000668   -0.000011
         0.000001   -0.000011   -0.000031

siesta: Pressure (static):         -0.44883045  kBar

siesta: Stress tensor (total) (eV/Ang**3):
         0.000203    0.000167    0.000001
         0.000167    0.000668   -0.000011
         0.000001   -0.000011   -0.000031

siesta: Pressure (total):         -0.44883045  kBar

siesta: Temp_ion =       0.000 K

siesta: Eigenvalues (eV):
ik =     1
  -22.9180  -22.9180  -22.5008  -22.5008  -21.7969  -21.7969  -21.3170  -21.3170  -21.1213  -21.1213
  -20.8277  -20.8277  -19.5015  -19.5015  -19.3376  -19.3376  -18.7227  -18.7227  -15.0995  -15.0995
  -14.1713  -14.1713  -13.7259  -13.7259  -13.6123  -13.6123  -13.1485  -13.1485  -12.9861  -12.9861
  -12.5803  -12.5803  -12.0895  -12.0895  -11.9680  -11.9680  -11.6299  -11.6299  -11.5289  -11.5289
  -11.0074  -11.0074  -10.6848  -10.6848  -10.2972  -10.2972   -9.6495   -9.6495   -9.3713   -9.3713
   -9.2385   -9.2385   -9.1833   -9.1833   -9.0796   -9.0796   -8.9004   -8.9004   -8.6638   -8.6638
   -8.4618   -8.4618   -8.3357   -8.3357   -8.2308   -8.2308   -8.0730   -8.0730   -8.0020   -8.0020
   -7.8869   -7.8869   -7.4451   -7.4451   -7.4085   -7.4085   -7.3555   -7.3555   -6.9128   -6.9128
   -6.8816   -6.8816   -6.8251   -6.8251   -6.4827   -6.4827   -6.4698   -6.4698   -6.3011   -6.3010
   -5.8860   -5.8860   -5.7885   -5.7885   -5.6561   -5.6561   -4.2946   -4.2946   -3.5675   -3.5675
   -2.7680   -2.7680   -2.2933   -2.2933   -2.2712   -2.2712   -2.1992   -2.1992   -2.0750   -2.0750
   -2.0279   -2.0279   -1.8105   -1.8105   -1.7002   -1.7002   -1.6689   -1.6689   -1.4968   -1.4968
   -1.2121   -1.2121   -0.6094   -0.6094   -0.4066   -0.4066   -0.3047   -0.3047   -0.2314   -0.2314
   -0.0685   -0.0685   -0.0111   -0.0111    0.1826    0.1826    0.4855    0.4855    0.4948    0.4948
    0.5768    0.5768    0.6963    0.6963    1.0729    1.0729    1.2040    1.2040    1.3823    1.3823
    1.4065    1.4065    1.4985    1.4985    1.7620    1.7620    1.9662    1.9662    2.1387    2.1387
    2.4061    2.4061    2.6223    2.6223    2.7209    2.7209    2.7660    2.7660    2.9651    2.9651
    2.9777    2.9777    3.0045    3.0045    3.1944    3.1944    3.2575    3.2575    3.4354    3.4354
    3.6554    3.6554    3.8395    3.8395    4.0562    4.0562    4.1821    4.1821    4.2167    4.2167
    4.2754    4.2754    4.6178    4.6178    4.7347    4.7347    4.8361    4.8361    5.0057    5.0057
    5.0200    5.0200    5.2778    5.2778    5.5087    5.5087    5.6362    5.6362    5.6952    5.6952
    5.7876    5.7876    6.0209    6.0209    6.0837    6.0837    6.2421    6.2421    6.2816    6.2816
    6.5439    6.5439    6.7262    6.7262    6.7518    6.7518    7.0474    7.0474    7.1568    7.1568
    7.2333    7.2333    7.4200    7.4200    7.6092    7.6092    7.7773    7.7773    7.9175    7.9175
    8.0348    8.0348    8.2083    8.2083    8.3330    8.3330    8.4529    8.4529    8.6181    8.6181
    8.8294    8.8294    9.0146    9.0146    9.0356    9.0356    9.2269    9.2269    9.5771    9.5771
    9.6430    9.6430    9.7544    9.7544    9.7900    9.7900    9.8851    9.8851   10.1029   10.1029
   10.3002   10.3002   10.4472   10.4472   10.7019   10.7019   10.8581   10.8581   11.0257   11.0257
   11.2278   11.2278   11.5113   11.5113   11.5804   11.5804   11.7228   11.7228   11.7416   11.7416
   11.8927   11.8927   12.2645   12.2645   12.4124   12.4124   12.4631   12.4631   12.5038   12.5038
   12.8721   12.8721   12.9589   12.9589   13.0952   13.0952   13.3491   13.3491   13.3661   13.3661
   13.5138   13.5138   13.7635   13.7635   14.4955   14.4955   14.7319   14.7319   14.7776   14.7776
   14.8293   14.8293   14.9955   14.9955   15.1121   15.1121   16.0370   16.0370   16.5058   16.5058
   16.7523   16.7523   16.8320   16.8320   16.9901   16.9901   17.1945   17.1945   17.4936   17.4936
   18.1818   18.1818   18.2343   18.2343   18.5206   18.5206   18.7288   18.7288   18.7555   18.7555
   18.7836   18.7836   19.5165   19.5165   19.6774   19.6774   19.9868   19.9868   20.4619   20.4619
   20.7160   20.7160   21.0801   21.0801   21.4628   21.4628   21.6482   21.6482   22.1533   22.1533
   22.2895   22.2895   22.9278   22.9278   23.0787   23.0787   23.1147   23.1147   23.9008   23.9008
   24.5828   24.5828   24.7946   24.7946   24.9130   24.9130   25.7418   25.7418   25.8850   25.8850
   26.1534   26.1534   26.5008   26.5008   26.6249   26.6249   27.6905   27.6905   27.8696   27.8696
   28.3228   28.3228   28.8491   28.8491   29.3676   29.3676   30.3421   30.3421   30.7398   30.7398
   30.7499   30.7499   30.7954   30.7954   31.1093   31.1093   31.3013   31.3013   31.6277   31.6277
   31.8976   31.8976   31.9105   31.9105   32.0916   32.0916   33.3707   33.3707   33.5656   33.5656
   34.0119   34.0119   34.1382   34.1382   34.4178   34.4178   34.6289   34.6289   35.6157   35.6157
   35.9031   35.9031   36.1156   36.1156   36.9475   36.9475   37.1055   37.1055   37.8321   37.8321
   37.8645   37.8645   38.3966   38.3966   38.4213   38.4213   38.7028   38.7028   39.1161   39.1161
   39.7307   39.7307   40.2015   40.2015   40.7202   40.7202   41.1805   41.1805   41.1944   41.1944
   41.7230   41.7230   42.4288   42.4288   43.0561   43.0561   43.5217   43.5217   43.7976   43.7976
   44.6240   44.6240   44.9031   44.9031   45.0606   45.0606   45.1249   45.1249   45.5964   45.5964
   46.2198   46.2198   46.4304   46.4304   46.6991   46.6991   47.2250   47.2250   47.3723   47.3723
   47.6944   47.6944   48.5630   48.5630   48.5809   48.5809   49.2622   49.2622   49.3412   49.3412
   50.0051   50.0051   50.2064   50.2064   50.4175   50.4175   50.4400   50.4400   50.8458   50.8458
   51.7140   51.7140   52.8151   52.8151   53.4452   53.4452   53.9473   53.9473   54.4103   54.4103
   54.9779   54.9779   55.3222   55.3222   55.7916   55.7916   56.5207   56.5207   56.5556   56.5556
   57.9388   57.9388   58.4929   58.4929   58.5100   58.5100   60.1456   60.1456   60.2501   60.2501
   61.0561   61.0561   62.1382   62.1382   62.2053   62.2054   63.0416   63.0416   63.5590   63.5590
   65.4513   65.4513   65.5181   65.5181   67.1030   67.1030   67.4975   67.4975   68.4835   68.4835
   68.7999   68.7999   70.7762   70.7762   71.9645   71.9645   79.0171   79.0171   88.6713   88.6713
   92.7114   92.7114   93.1940   93.1940   95.1975   95.1975   96.8638   96.8638  100.1316  100.1316
  102.0937  102.0937  102.6058  102.6058  115.6250  115.6250  119.2796  119.2796  123.4513  123.4513
  133.3496  133.3496  139.8676  139.8676
siesta: Fermi energy =      -3.931058 eV

siesta: Program's energy decomposition (eV):
siesta: Ebs     =     -1118.713911
siesta: Eions   =      3553.971015
siesta: Ena     =       374.968811
siesta: Ekin    =      2743.027222
siesta: Enl     =     -2522.917206
siesta: Eso     =        -0.004668
siesta: Edftu   =         0.000000
siesta: DEna    =        36.977961
siesta: DUscf   =        13.792444
siesta: DUext   =         0.000000
siesta: Exc     =     -1090.875588
siesta: eta*DQ  =         0.000000
siesta: Emadel  =         0.000000
siesta: Emeta   =         0.000000
siesta: Emolmec =         0.000000
siesta: Ekinion =         0.000000
siesta: Eharris =     -3999.002038
siesta: Etot    =     -3999.002038
siesta: FreeEng =     -3999.002039

siesta: Final energy (eV):
siesta:  Band Struct. =   -1118.713911
siesta:       Kinetic =    2743.027222
siesta:       Hartree =    7775.679647
siesta:       Edftu   =       0.000000
siesta:       Eso     =      -0.004668
siesta:    Ext. field =       0.000000
siesta:   Exch.-corr. =   -1090.875588
siesta:  Ion-electron =  -17997.353893
siesta:       Ion-ion =    4570.525242
siesta:       Ekinion =       0.000000
siesta:         Total =   -3999.002038
siesta:         Fermi =      -3.931058

siesta: Atomic forces (eV/Ang):
siesta:      1    0.142819   -0.014578   -0.000000
siesta:      2   -0.026181    0.019633   -0.000000
siesta:      3   -0.022157   -0.005807   -0.000000
siesta:      4    0.175315    0.011882   -0.000000
siesta:      5   -0.002113   -0.027625    0.000000
siesta:      6   -0.139529    0.014179   -0.000000
siesta:      7    0.773824    0.019609   -0.000003
siesta:      8   -0.516118    1.309973    0.000007
siesta:      9    0.182296   -0.799988   -0.000017
siesta:     10   -0.154938    0.033552    0.000002
siesta:     11   -0.123814   -0.262058    0.000003
siesta:     12   -0.217803    0.030587    0.000001
siesta:     13   -0.150433    0.043282    0.000000
siesta:     14    0.021420   -0.100144   -0.000001
siesta:     15    0.078611    0.082012    0.000000
siesta:     16   -0.131210   -0.067125   -0.000944
siesta:     17    0.026058   -0.057893   -0.000804
siesta:     18   -0.115757    0.025209    0.005287
siesta:     19    0.035723   -0.102599   -0.001478
siesta:     20    0.089905    0.061538   -0.001010
siesta:     21    0.027188   -0.017666   -0.006847
siesta:     22    0.055827   -0.116923    0.088310
siesta:     23   -0.047762    0.149240   -0.016266
siesta:     24    0.056350   -0.049000   -0.074543
siesta:     25   -0.488269   -0.330119    0.000994
siesta:     26   -1.714570   -3.398806    0.000494
siesta:     27    0.261482   -0.359798   -0.000548
siesta:     28   -0.107850    0.546221   -0.000078
siesta:     29    0.115377    0.117242   -0.000208
siesta:     30   -1.220438    2.280164    0.000246
siesta: ----------------------------------------
siesta:    Tot   -3.136747   -0.965806   -0.007401

siesta: Stress tensor (static) (eV/Ang**3):
siesta:     0.000203    0.000167    0.000001
siesta:     0.000167    0.000668   -0.000011
siesta:     0.000001   -0.000011   -0.000031

siesta: Cell volume =       4919.541098 Ang**3

siesta: Pressure (static):
siesta:                Solid            Molecule  Units
siesta:          -0.00000305         -0.00000237  Ry/Bohr**3
siesta:          -0.00028013         -0.00021800  eV/Ang**3
siesta:          -0.44883045         -0.34927283  kBar
(Free)E+ p_basis*V_orbitals  =       -3977.873954
(Free)Eharris+ p_basis*V_orbitals  =       -3977.873954
     spin moment: S , {S} =    0.00000   0.00000   0.00000  -0.00000

siesta: Electric dipole (a.u.)  =   -1.278750    1.813650   -0.001715
siesta: Electric dipole (Debye) =   -3.250261    4.609842   -0.004359

cite: Please see "AT.bib" for an exhaustive BiBTeX file.
cite: Please clearly indicate Siesta version in published work: v4.1.5-1-g384057250
cite: This calculation has made use of the following articles
cite: which are encouraged to be cited in a published work.
        Primary SIESTA paper
          DOI: www.doi.org/10.1088/0953-8984/14/11/302
        Spin-orbit coupling (on-site approximation)
          DOI: www.doi.org/10.1088/0953-8984/19/19/489001

WARNING: alloc-realloc-dealloc name mismatch
         Name: atomlist isa
         Node:     0
         Subsequent mismatches will not be reported
>> End of run:  16-OCT-2023  20:32:18
Job completed