>> Start of run:  14-OCT-2023  11:48:56

reinit: Reading from standard input
reinit: Dumped input in INPUT_TMP.91454
************************** Dump of input data file ****************************
# mpirun -np 4 siesta-4.1.5 < Thymine.fdf > Thymine.out
SystemLabel      Thymine
NumberOfAtoms    15
NumberOfSpecies  4
%block ChemicalSpeciesLabel
    1    1  H
    2    7  N
    3   14  Si
    4    8  O
%endblock ChemicalSpeciesLabel
# This overrides Defaults.fdf configuration
MD.TypeOfRun                Verlet # CG, Verlet
MD.Steps                    300
MD.Quench                   True
AtomicCoordinatesFormat NotScaledCartesianAng
%block AtomicCoordinatesAndAtomicSpecies
1.242161 5.687181 0.000000 1
0.432477 5.014500 0.000000 2
-0.943700 5.484401 0.000000 3
-1.056913 6.583724 0.000000 1
-2.023180 4.641328 0.000000 3
-3.430296 5.153830 0.000000 3
-3.720767 5.802691 -0.647100 1
-4.100149 4.264215 0.312385 1
-3.529647 5.743702 0.957589 1
-1.829833 3.188407 0.000000 3
-2.779511 2.364822 0.000000 4
-0.434550 2.703596 0.000000 2
-0.240032 1.583463 0.000000 1
0.774211 3.545831 0.000000 3
1.917000 3.111784 0.000000 4
%endblock AtomicCoordinatesAndAtomicSpecies
# Unit Cell
LatticeConstant 1.0 Ang
%block LatticeVectors
    16.818328    0.000000    0.000000
    0.000000   14.230200    0.000000
    0.000000    0.000000   10.224979
%endblock LatticeVectors
%include ../../../../Defaults.fdf
************************** End of input data file *****************************

reinit: -----------------------------------------------------------------------
reinit: System Name:
reinit: -----------------------------------------------------------------------
reinit: System Label: Thymine
reinit: -----------------------------------------------------------------------

initatom: Reading input for the pseudopotentials and atomic orbitals ----------
Species number:   1 Atomic number:    1 Label: H
Species number:   2 Atomic number:    7 Label: N
Species number:   3 Atomic number:   14 Label: Si
Species number:   4 Atomic number:    8 Label: O

Ground state valence configuration:   1s01
Reading pseudopotential information in formatted form from H.psf

Pseudopotential generated from a relativistic atomic calculation

Valence configuration for pseudopotential generation:
1s( 1.00) rc: 0.01
2p( 0.00) rc: 0.60
3d( 0.00) rc: 1.99
4f( 0.00) rc: 2.49
Ground state valence configuration:   2s02  2p03
Reading pseudopotential information in formatted form from N.psf

[...]

Valence configuration for pseudopotential generation:
3s( 2.00) rc: 1.67
3p( 2.00) rc: 2.04
3d( 0.00) rc: 2.89
4f( 0.00) rc: 2.49
Ground state valence configuration:   2s02  2p04
Reading pseudopotential information in formatted form from O.psf

Pseudopotential generated from a relativistic atomic calculation

Valence configuration for pseudopotential generation:
2s( 2.00) rc: 0.45
2p( 4.00) rc: 0.92
3d( 0.00) rc: 2.24
4f( 0.00) rc: 0.25
For H, standard SIESTA heuristics set lmxkb to 2
 (one more than the basis l, including polarization orbitals).
Use PS.lmax or PS.KBprojectors blocks to override.
For N, standard SIESTA heuristics set lmxkb to 3
 (one more than the basis l, including polarization orbitals).
Use PS.lmax or PS.KBprojectors blocks to override.
For Si, standard SIESTA heuristics set lmxkb to 3
 (one more than the basis l, including polarization orbitals).
Use PS.lmax or PS.KBprojectors blocks to override.
For O, standard SIESTA heuristics set lmxkb to 3
 (one more than the basis l, including polarization orbitals).
Use PS.lmax or PS.KBprojectors blocks to override.

<basis_specs>
H                    Z=   1    Mass=  1.0100        Charge= 0.17977+309
Lmxo=0 Lmxkb= 2    BasisType=split      Semic=F
L=0  Nsemic=0  Cnfigmx=1
          i=1  nzeta=2  polorb=1  (1s)
            splnorm:   0.62000
               vcte:    0.0000
               rinn:    0.0000
               qcoe:    0.0000
               qyuk:    0.0000
               qwid:   0.10000E-01
                rcs:    0.0000      0.0000
            lambdas:    1.0000      1.0000
L=0  Nkbl=1  erefs: 0.17977+309
L=1  Nkbl=1  erefs: 0.17977+309
L=2  Nkbl=1  erefs: 0.17977+309
</basis_specs>

atom: Called for H                     (Z =   1)

read_vps: Pseudopotential generation method:
read_vps: ATM4.2.7  Troullier-Martins
Valence charge for ps generation:    1.00000

xc_check: Exchange-correlation functional:
xc_check: GGA Perdew, Burke & Ernzerhof 1996
V l=0 = -2*Zval/r beyond r=  0.0098
V l=1 = -2*Zval/r beyond r=  0.5817
V l=2 = -2*Zval/r beyond r=  1.9372
All V_l potentials equal beyond r=  1.9372
This should be close to max(r_c) in ps generation
All pots = -2*Zval/r beyond r=  1.9372

VLOCAL1: 99.0% of the norm of Vloc inside     11.567 Ry
VLOCAL1: 99.9% of the norm of Vloc inside     26.362 Ry
atom: Maximum radius for 4*pi*r*r*local-pseudopot. charge    2.25106
atom: Maximum radius for r*vlocal+2*Zval:    1.91306
GHOST: No ghost state for L =  0
GHOST: No ghost state for L =  1
GHOST: No ghost state for L =  2

KBgen: Kleinman-Bylander projectors:
   l= 0   rc=  2.036604   el= -0.477180   Ekb= -6.081590   kbcos= -0.277285
   l= 1   rc=  2.195416   el=  0.001076   Ekb= -0.926943   kbcos= -0.034643
   l= 2   rc=  2.251056   el=  0.002010   Ekb= -0.130941   kbcos= -0.009788

KBgen: Total number of Kleinman-Bylander projectors:    9
atom: -------------------------------------------------------------------------

atom: SANKEY-TYPE ORBITALS:
atom: Selected multiple-zeta basis: split

SPLIT: Orbitals with angular momentum L= 0

SPLIT: Basis orbitals for state 1s

SPLIT: PAO cut-off radius determined from an
SPLIT: energy shift=  0.002000 Ry

   izeta = 1
                 lambda =    1.000000
                     rc =    6.518340
                 energy =   -0.475305
                kinetic =    0.912139
    potential(screened) =   -1.387444
       potential(ionic) =   -1.907295

   izeta = 2
                 rmatch =    2.141150
              splitnorm =    0.620000
                 energy =    0.566467
                kinetic =    3.772856
    potential(screened) =   -3.206389
       potential(ionic) =   -3.759093

POLgen: Perturbative polarization orbital with L=  1

POLgen: Polarization orbital for state 1s

   izeta = 1
                     rc =    6.518340
                 energy =    0.533861
                kinetic =    1.121086
    potential(screened) =   -0.587225
       potential(ionic) =   -1.053027
atom: Total number of Sankey-type orbitals:  5

atm_pop: Valence configuration (for local Pseudopot. screening):
 1s( 1.00)
Vna: chval, zval:    1.00000   1.00000

Vna:  Cut-off radius for the neutral-atom potential:   6.518340

atom: _________________________________________________________________________

<basis_specs>
N                    Z=   7    Mass=  14.010        Charge= 0.17977+309
Lmxo=1 Lmxkb= 3    BasisType=split      Semic=F
L=0  Nsemic=0  Cnfigmx=2
          i=1  nzeta=2  polorb=0  (2s)
            splnorm:   0.28000
               vcte:    0.0000
               rinn:    0.0000
               qcoe:    0.0000
               qyuk:    0.0000
               qwid:   0.10000E-01
                rcs:    0.0000      0.0000
            lambdas:    1.0000      1.0000
L=1  Nsemic=0  Cnfigmx=2
          i=1  nzeta=2  polorb=1  (2p)
            splnorm:   0.28000
               vcte:    0.0000
               rinn:    0.0000
               qcoe:    0.0000
               qyuk:    0.0000
               qwid:   0.10000E-01
                rcs:    0.0000      0.0000
            lambdas:    1.0000      1.0000
L=0  Nkbl=1  erefs: 0.17977+309
L=1  Nkbl=1  erefs: 0.17977+309
L=2  Nkbl=1  erefs: 0.17977+309
L=3  Nkbl=1  erefs: 0.17977+309
</basis_specs>

[...]

KBgen: Kleinman-Bylander projectors:
   l= 0   rc=  3.417763   el= -1.365098   Ekb= -4.433130   kbcos= -0.707855
   l= 1   rc=  3.375302   el= -0.521201   Ekb=-13.264039   kbcos= -0.535594
   l= 2   rc=  3.872880   el=  0.001991   Ekb= -0.641094   kbcos= -0.062456
   l= 3   rc=  3.970931   el=  0.003093   Ekb= -0.474517   kbcos= -0.018236

[...]

SPLIT: Basis orbitals for state 2p

[...]

POLgen: Polarization orbital for state 2p

[...]

atm_pop: Valence configuration (for local Pseudopot. screening):
 2s( 2.00)
 2p( 3.00)
Vna: chval, zval:    5.00000   5.00000

[...]

KBgen: Kleinman-Bylander projectors:
   l= 0   rc=  3.075247   el= -0.794092   Ekb=  5.879390   kbcos=  0.167461
   l= 1   rc=  3.153101   el= -0.300068   Ekb=  2.642817   kbcos=  0.058301
   l= 2   rc=  3.273594   el=  0.001958   Ekb= -1.185135   kbcos= -0.104411
   l= 3   rc=  3.232927   el=  0.003046   Ekb= -0.497174   kbcos= -0.015889

[...]

<basis_specs>
O                    Z=   8    Mass=  16.000        Charge= 0.17977+309
Lmxo=1 Lmxkb= 3    BasisType=split      Semic=F
L=0  Nsemic=0  Cnfigmx=2
          i=1  nzeta=2  polorb=0  (2s)
            splnorm:   0.28000
               vcte:    0.0000
               rinn:    0.0000
               qcoe:    0.0000
               qyuk:    0.0000
               qwid:   0.10000E-01
                rcs:    0.0000      0.0000
            lambdas:    1.0000      1.0000
L=1  Nsemic=0  Cnfigmx=2
          i=1  nzeta=2  polorb=1  (2p)
            splnorm:   0.28000
               vcte:    0.0000
               rinn:    0.0000
               qcoe:    0.0000
               qyuk:    0.0000
               qwid:   0.10000E-01
                rcs:    0.0000      0.0000
            lambdas:    1.0000      1.0000
L=0  Nkbl=1  erefs: 0.17977+309
L=1  Nkbl=1  erefs: 0.17977+309
L=2  Nkbl=1  erefs: 0.17977+309
L=3  Nkbl=1  erefs: 0.17977+309
</basis_specs>

atom: Called for O                     (Z =   8)

read_vps: Pseudopotential generation method:
read_vps: ATM4.2.7  Troullier-Martins
Valence charge for ps generation:    6.00000

xc_check: Exchange-correlation functional:
xc_check: GGA Perdew, Burke & Ernzerhof 1996
V l=0 = -2*Zval/r beyond r=  1.1000
V l=1 = -2*Zval/r beyond r=  1.1000
V l=2 = -2*Zval/r beyond r=  2.2154
V l=3 = -2*Zval/r beyond r=  1.1000
All V_l potentials equal beyond r=  2.2154
This should be close to max(r_c) in ps generation
All pots = -2*Zval/r beyond r=  2.2154

VLOCAL1: 99.0% of the norm of Vloc inside      8.845 Ry
VLOCAL1: 99.9% of the norm of Vloc inside     20.157 Ry
atom: Maximum radius for 4*pi*r*r*local-pseudopot. charge    2.67231
atom: Maximum radius for r*vlocal+2*Zval:    2.32897
GHOST: No ghost state for L =  0
GHOST: No ghost state for L =  1
GHOST: No ghost state for L =  2
GHOST: No ghost state for L =  3

KBgen: Kleinman-Bylander projectors:
   l= 0   rc=  2.243238   el= -1.759686   Ekb=**********   kbcos= -0.171774
   l= 1   rc=  2.328968   el= -0.663873   Ekb=-14.506792   kbcos= -0.519897
   l= 2   rc=  2.573941   el=  0.002031   Ekb= -1.137373   kbcos= -0.019581
   l= 3   rc=  2.606321   el=  0.003153   Ekb= -1.013546   kbcos= -0.003122

KBgen: Total number of Kleinman-Bylander projectors:   16
atom: -------------------------------------------------------------------------

atom: SANKEY-TYPE ORBITALS:
atom: Selected multiple-zeta basis: split

[...]

SPLIT: Basis orbitals for state 2s

[...]

SPLIT: Orbitals with angular momentum L= 1

SPLIT: Basis orbitals for state 2p

[...]
     spin moment: S , {S} =    0.00000   0.00000  -0.00000   0.00000

[...]

        iscf     Eharris(eV)        E_KS(eV)     FreeEng(eV)     dDmax    Ef(eV) dHmax(eV)
   scf:    1    -2039.288674    -2039.290099    -2039.290099  0.000466 -4.841667  0.015600
     spin moment: S , {S} =    0.00000  -0.00000  -0.00000   0.00000
   scf:    2    -2039.289983    -2039.290071    -2039.290071  0.000594 -4.848174  0.034129
     spin moment: S , {S} =    0.00000  -0.00000  -0.00000   0.00000
   scf:    3    -2039.290123    -2039.290111    -2039.290111  0.000400 -4.844106  0.001777
     spin moment: S , {S} =    0.00000  -0.00000  -0.00000   0.00000
   scf:    4    -2039.290111    -2039.290111    -2039.290111  0.000013 -4.844267  0.000609
     spin moment: S , {S} =    0.00000  -0.00000  -0.00000   0.00000
   scf:    5    -2039.290111    -2039.290111    -2039.290111  0.000004 -4.844331  0.000213
     spin moment: S , {S} =    0.00000  -0.00000  -0.00000   0.00000
   scf:    6    -2039.290111    -2039.290111    -2039.290111  0.000004 -4.844359  0.000078
     spin moment: S , {S} =    0.00000  -0.00000  -0.00000   0.00000
   scf:    7    -2039.290111    -2039.290111    -2039.290111  0.000002 -4.844378  0.000013
     spin moment: S , {S} =    0.00000  -0.00000  -0.00000   0.00000
   scf:    8    -2039.290111    -2039.290111    -2039.290111  0.000000 -4.844379  0.000003
     spin moment: S , {S} =    0.00000  -0.00000  -0.00000   0.00000
   scf:    9    -2039.290111    -2039.290111    -2039.290111  0.000000 -4.844379  0.000002
     spin moment: S , {S} =    0.00000  -0.00000  -0.00000   0.00000
   scf:   10    -2039.290111    -2039.290111    -2039.290111  0.000000 -4.844380  0.000001
     spin moment: S , {S} =    0.00000  -0.00000  -0.00000   0.00000

[...]

                        Begin MD quenched step =    300

outcoor: Atomic coordinates (Ang):
    1.75155444    5.87003157    0.08621017   1       1  H
    0.81380974    5.38740757    0.21475698   2       2  N
   -0.70454055    6.30566028    0.05604395   3       3  Si
   -0.34498182    7.77423694    0.09283891   1       4  H
   -2.38531542    5.19894973   -0.92504585   3       5  Si
   -4.56005948    5.53694667    0.01432463   3       6  Si
   -5.34105598    6.41929471   -0.94023751   1       7  H
   -5.24632772    4.18765125    0.08647610   1       8  H
   -4.55441589    6.22501402    1.36331907   1       9  H
   -1.98343140    3.09743822   -0.04333897   3      10  Si
   -3.15466882    2.04427810    0.00034787   4      11  O
   -0.34422549    2.59488785    0.38268730   2      12  N
   -0.10811590    1.56514990    0.43765492   1      13  H
    1.04319257    3.62422271    0.18439817   3      14  Si
    2.45928689    3.02256108   -0.00037130   4      15  O

outcell: Unit cell vectors (Ang):
       16.818328    0.000000    0.000000
        0.000000   14.230200    0.000000
        0.000000    0.000000   10.224979

outcell: Cell vector modules (Ang)   :   16.818328   14.230200   10.224979
outcell: Cell angles (23,13,12) (deg):     90.0000     90.0000     90.0000
outcell: Cell volume (Ang**3)        :   2447.1255
<dSpData1D:S at geom step 300
  <sparsity:sparsity for geom step 300
    nrows_g=147 nrows=27 sparsity=.1802 nnzs=3893, refcount: 8>
  <dData1D:(new from dSpData1D) n=3893, refcount: 1>
refcount: 1>
new_DM -- step:   300
Re-using DM from previous geometries...
Number of DMs in history: 3
  Estimated Rank of xi*xj matrix:            3
 matrix rank:            4
Singular values:
  1.7337      1.7304     0.56632E-03 0.82643E-05
 DM extrapolation coefficients:
1  -0.00992
2  -0.98842
3   1.99834
New DM after history re-use:
<dSpData2D:SpM extrapolated using coords
  <sparsity:sparsity for geom step 300
    nrows_g=147 nrows=27 sparsity=.1802 nnzs=3893, refcount: 12>
  <dData2D:(temp array for extrapolation) n=3893 m=8, refcount: 1>
refcount: 1>
     spin moment: S , {S} =    0.00000  -0.00000  -0.00000   0.00000
No. of atoms with KB's overlaping orbs in proc 0. Max # of overlaps:      15     133
New grid distribution:   1
           1       1:   96    1:   40    1:   20
           2       1:   96    1:   40   21:   40
           3       1:   96    1:   40   41:   60
           4       1:   96   41:   80    1:   20
           5       1:   96   41:   80   21:   40
           6       1:   96   41:   80   41:   60

InitMesh: MESH =   192 x   160 x   120 =     3686400
InitMesh: (bp) =    96 x    80 x    60 =      460800
InitMesh: Mesh cutoff (required, used) =   340.000   349.397 Ry
ExtMesh (bp) on 0 =   200 x   144 x   128 =     3686400
New grid distribution:   2
           1       1:   76    1:   21    1:   60
           2      77:   96   21:   80    1:   20
           3      77:   96    1:   20    1:   60
           4       1:   76   22:   80    1:   23
           5      77:   96   21:   80   21:   60
           6       1:   76   22:   80   24:   60
New grid distribution:   3
           1       1:   65    1:   21    1:   60
           2      66:   96    1:   22    1:   60
           3      66:   96   23:   80   31:   60
           4       1:   65   22:   80    1:   24
           5      66:   96   23:   80    1:   30
           6       1:   65   22:   80   25:   60
Setting up quadratic distribution...
ExtMesh (bp) on 0 =   180 x   125 x   168 =     3780000
PhiOnMesh: Number of (b)points on node 0 =                95760
PhiOnMesh: nlist on node 0 =               951426

        iscf     Eharris(eV)        E_KS(eV)     FreeEng(eV)     dDmax    Ef(eV) dHmax(eV)
   scf:    1    -2039.290707    -2039.291858    -2039.291858  0.000330 -4.823932  0.008054
     spin moment: S , {S} =    0.00000  -0.00000  -0.00000   0.00000
   scf:    2    -2039.291823    -2039.291849    -2039.291849  0.000220 -4.820972  0.017010
     spin moment: S , {S} =    0.00000  -0.00000  -0.00000   0.00000
   scf:    3    -2039.291864    -2039.291861    -2039.291861  0.000171 -4.823131  0.001999
     spin moment: S , {S} =    0.00000  -0.00000  -0.00000   0.00000
   scf:    4    -2039.291861    -2039.291861    -2039.291861  0.000011 -4.823056  0.000791
     spin moment: S , {S} =    0.00000  -0.00000  -0.00000   0.00000
   scf:    5    -2039.291861    -2039.291861    -2039.291861  0.000005 -4.823033  0.000181
     spin moment: S , {S} =    0.00000  -0.00000  -0.00000   0.00000
   scf:    6    -2039.291861    -2039.291861    -2039.291861  0.000001 -4.823023  0.000035
     spin moment: S , {S} =    0.00000  -0.00000  -0.00000   0.00000
   scf:    7    -2039.291861    -2039.291861    -2039.291861  0.000000 -4.823020  0.000025
     spin moment: S , {S} =    0.00000  -0.00000  -0.00000   0.00000
   scf:    8    -2039.291861    -2039.291861    -2039.291861  0.000000 -4.823015  0.000004
     spin moment: S , {S} =    0.00000  -0.00000  -0.00000   0.00000
   scf:    9    -2039.291861    -2039.291861    -2039.291861  0.000000 -4.823015  0.000002
     spin moment: S , {S} =    0.00000  -0.00000  -0.00000   0.00000
   scf:   10    -2039.291861    -2039.291861    -2039.291861  0.000000 -4.823015  0.000001
     spin moment: S , {S} =    0.00000  -0.00000  -0.00000   0.00000
   scf:   11    -2039.291861    -2039.291861    -2039.291861  0.000000 -4.823015  0.000000
     spin moment: S , {S} =    0.00000  -0.00000  -0.00000   0.00000

SCF Convergence by DM+H criterion
max |DM_out - DM_in|         :     0.0000000309
max |H_out - H_in|      (eV) :     0.0000003669
SCF cycle converged after 11 iterations

Using DM_out to compute the final energy and forces
No. of atoms with KB's overlaping orbs in proc 0. Max # of overlaps:      15     133

siesta: E_KS(eV) =            -2039.2919
     spin moment: S , {S} =    0.00000  -0.00000  -0.00000   0.00000

siesta: Atomic forces (eV/Ang):
     1    0.015540    0.000120   -0.002291
     2   -0.009609    0.014081    0.023490
     3   -0.367133   -0.016387   -0.019902
     4    0.001218   -0.013014    0.000554
     5   -0.196131    0.105509    0.000096
     6   -0.135110    0.099025   -0.089325
     7    0.029889   -0.116937    0.043899
     8    0.032765    0.000018    0.007459
     9   -0.001854    0.002579   -0.004178
    10   -0.514812    0.394441   -0.180469
    11   -0.002187   -0.008226   -0.000191
    12   -0.009006    0.319541    0.115320
    13    0.006889   -0.058805    0.031324
    14   -0.001525    0.215040    0.030894
    15   -0.016731   -0.004069   -0.002000
   Tot   -1.167797    0.932916   -0.045317
   Max    0.514812
   Res    0.138302    sqrt( Sum f_i^2 / 3N )
   Max    0.514812    constrained

Stress tensor Voigt[x,y,z,yz,xz,xy] (kbar):       -5.03       -1.28       -0.40        0.04       -0.12        0.64
(Free)E + p*V (eV/cell)    -2035.8765
Target enthalpy (eV/cell)    -2039.2919

siesta: Stress tensor (static) (eV/Ang**3):
        -0.003112    0.000390   -0.000073
         0.000390   -0.000784    0.000027
        -0.000073    0.000027   -0.000246

siesta: Pressure (static):          2.21246220  kBar

siesta: Stress tensor (total) (eV/Ang**3):
        -0.003137    0.000400   -0.000075
         0.000400   -0.000799    0.000028
        -0.000075    0.000028   -0.000251

siesta: Pressure (total):          2.23611861  kBar

siesta: Temp_ion =      23.241 K

outcoor: Final (unrelaxed) atomic coordinates (Ang):
    1.75155444    5.87003157    0.08621017   1       1  H
    0.81380974    5.38740757    0.21475698   2       2  N
   -0.70454055    6.30566028    0.05604395   3       3  Si
   -0.34498182    7.77423694    0.09283891   1       4  H
   -2.38531542    5.19894973   -0.92504585   3       5  Si
   -4.56005948    5.53694667    0.01432463   3       6  Si
   -5.34105598    6.41929471   -0.94023751   1       7  H
   -5.24632772    4.18765125    0.08647610   1       8  H
   -4.55441589    6.22501402    1.36331907   1       9  H
   -1.98343140    3.09743822   -0.04333897   3      10  Si
   -3.15466882    2.04427810    0.00034787   4      11  O
   -0.34422549    2.59488785    0.38268730   2      12  N
   -0.10811590    1.56514990    0.43765492   1      13  H
    1.04319257    3.62422271    0.18439817   3      14  Si
    2.45928689    3.02256108   -0.00037130   4      15  O

siesta: Eigenvalues (eV):
ik =     1
  -23.1805  -23.1805  -22.5587  -22.5587  -22.0158  -22.0158  -21.6300  -21.6300  -15.0491  -15.0491
  -13.9694  -13.9694  -13.7608  -13.7608  -13.1423  -13.1423  -12.0245  -12.0245  -11.8249  -11.8249
  -10.7103  -10.7103   -9.5189   -9.5189   -9.3743   -9.3743   -8.9425   -8.9425   -8.7617   -8.7617
   -8.4881   -8.4881   -8.3086   -8.3086   -7.9496   -7.9496   -7.6100   -7.6100   -7.4212   -7.4212
   -6.9737   -6.9737   -6.8327   -6.8327   -6.3791   -6.3791   -6.1710   -6.1710   -4.0290   -4.0290
   -2.4457   -2.4457   -2.3807   -2.3807   -1.9988   -1.9988   -1.8916   -1.8916   -1.3709   -1.3709
   -1.0933   -1.0933   -0.5784   -0.5784    0.1904    0.1904    0.3512    0.3512    0.4744    0.4744
    0.6483    0.6483    0.8917    0.8917    1.1774    1.1774    1.3337    1.3337    1.6162    1.6162
    2.1491    2.1491    2.3602    2.3602    2.6613    2.6613    3.4736    3.4736    3.6512    3.6512
    3.7632    3.7632    3.9606    3.9606    4.2741    4.2741    4.5745    4.5745    4.7245    4.7245
    5.0757    5.0757    5.3710    5.3710    5.7145    5.7145    6.0886    6.0886    6.1801    6.1801
    6.6322    6.6322    6.7645    6.7645    7.1485    7.1485    7.6853    7.6853    7.8613    7.8613
    8.0077    8.0077    8.6440    8.6440    8.9518    8.9518    9.0634    9.0634    9.5467    9.5467
    9.9648    9.9648   10.0669   10.0669   10.5294   10.5294   10.8595   10.8595   11.4483   11.4483
   11.6013   11.6013   11.9834   11.9834   12.4173   12.4173   12.7543   12.7543   12.8818   12.8818
   13.5421   13.5421   13.8253   13.8253   14.2057   14.2057   14.5279   14.5279   14.9375   14.9375
   15.8821   15.8821   16.5161   16.5161   17.1140   17.1140   17.6089   17.6089   17.6521   17.6521
   18.0713   18.0713   19.2731   19.2731   19.5252   19.5252   20.4177   20.4177   21.0053   21.0053
   21.2865   21.2865   21.8663   21.8663   22.2993   22.2993   22.7935   22.7935   23.5652   23.5652
   24.3430   24.3430   25.2008   25.2008   25.9383   25.9383   26.4210   26.4210   27.0490   27.0490
   27.9879   27.9879   28.1953   28.1953   28.3600   28.3600   29.8185   29.8185   30.5900   30.5900
   33.4535   33.4535   33.9828   33.9828   34.1980   34.1980   34.6744   34.6744   35.2333   35.2333
   35.5620   35.5620   36.3795   36.3795   37.5984   37.5984   38.7471   38.7471   38.8630   38.8630
   39.2374   39.2374   41.6897   41.6897   41.7852   41.7852   43.1477   43.1477   43.5000   43.5000
   45.6330   45.6330   46.1900   46.1900   47.7179   47.7179   49.7342   49.7342   49.9917   49.9917
   50.6273   50.6273   51.0125   51.0125   51.4887   51.4887   52.5241   52.5241   53.9275   53.9275
   54.3748   54.3748   56.0959   56.0959   57.1596   57.1596   57.5606   57.5606   60.2195   60.2195
   61.7028   61.7028   63.2534   63.2534   65.9752   65.9752   69.4461   69.4461   69.7045   69.7045
   70.8518   70.8518   91.4512   91.4512   96.5182   96.5182   97.7186   97.7186  100.8611  100.8611
  118.2202  118.2202  134.3576  134.3576
siesta: Fermi energy =      -4.823015 eV

siesta: Program's energy decomposition (eV):
siesta: Ebs     =      -565.195024
siesta: Eions   =      1908.291957
siesta: Ena     =       162.740408
siesta: Ekin    =      1443.574050
siesta: Enl     =     -1207.933560
siesta: Eso     =        -0.002280
siesta: Edftu   =         0.000000
siesta: DEna    =         7.968246
siesta: DUscf   =         7.035239
siesta: DUext   =         0.000000
siesta: Exc     =      -544.382007
siesta: eta*DQ  =         0.000000
siesta: Emadel  =         0.000000
siesta: Emeta   =         0.000000
siesta: Emolmec =         0.000000
siesta: Ekinion =         0.042055
siesta: Eharris =     -2039.249805
siesta: Etot    =     -2039.249805
siesta: FreeEng =     -2039.249805

siesta: Final energy (eV):
siesta:  Band Struct. =    -565.195024
siesta:       Kinetic =    1443.574050
siesta:       Hartree =    3185.048952
siesta:       Edftu   =       0.000000
siesta:       Eso     =      -0.002280
siesta:    Ext. field =       0.000000
siesta:   Exch.-corr. =    -544.382007
siesta:  Ion-electron =   -7672.554142
siesta:       Ion-ion =    1549.023566
siesta:       Ekinion =       0.042055
siesta:         Total =   -2039.249805
siesta:         Fermi =      -4.823015

siesta: Atomic forces (eV/Ang):
siesta:      1    0.015540    0.000120   -0.002291
siesta:      2   -0.009609    0.014081    0.023490
siesta:      3   -0.367133   -0.016387   -0.019902
siesta:      4    0.001218   -0.013014    0.000554
siesta:      5   -0.196131    0.105509    0.000096
siesta:      6   -0.135110    0.099025   -0.089325
siesta:      7    0.029889   -0.116937    0.043899
siesta:      8    0.032765    0.000018    0.007459
siesta:      9   -0.001854    0.002579   -0.004178
siesta:     10   -0.514812    0.394441   -0.180469
siesta:     11   -0.002187   -0.008226   -0.000191
siesta:     12   -0.009006    0.319541    0.115320
siesta:     13    0.006889   -0.058805    0.031324
siesta:     14   -0.001525    0.215040    0.030894
siesta:     15   -0.016731   -0.004069   -0.002000
siesta: ----------------------------------------
siesta:    Tot   -1.167797    0.932916   -0.045317

siesta: Stress tensor (static) (eV/Ang**3):
siesta:    -0.003112    0.000390   -0.000073
siesta:     0.000390   -0.000784    0.000027
siesta:    -0.000073    0.000027   -0.000246

siesta: Cell volume =       2447.125524 Ang**3

siesta: Pressure (static):
siesta:                Solid            Molecule  Units
siesta:           0.00001504          0.00001659  Ry/Bohr**3
siesta:           0.00138090          0.00152342  eV/Ang**3
siesta:           2.21246220          2.44081024  kBar
(Free)E+ p_basis*V_orbitals  =       -2028.845646
(Free)Eharris+ p_basis*V_orbitals  =       -2028.845646
     spin moment: S , {S} =    0.00000  -0.00000  -0.00000   0.00000

siesta: Electric dipole (a.u.)  =    0.148750    2.233604    0.154878
siesta: Electric dipole (Debye) =    0.378085    5.677259    0.393660

cite: Please see "Thymine.bib" for an exhaustive BiBTeX file.
cite: Please clearly indicate Siesta version in published work: v4.1.5-1-g384057250
cite: This calculation has made use of the following articles
cite: which are encouraged to be cited in a published work.
        Primary SIESTA paper
          DOI: www.doi.org/10.1088/0953-8984/14/11/302
        Spin-orbit coupling (on-site approximation)
          DOI: www.doi.org/10.1088/0953-8984/19/19/489001

WARNING: alloc-realloc-dealloc name mismatch
         Name: atomlist isa
         Node:     0
         Subsequent mismatches will not be reported
>> End of run:  14-OCT-2023  13:30:27
Job completed