>> Start of run:  12-MAY-2023   3:26:48

reinit: Reading from standard input
reinit: Dumped input in INPUT_TMP.11636
************************** Dump of input data file ****************************
# mpirun -np 4 siesta-4.1.5 < Guanine.fdf > Guanine.out
SystemLabel      Guanine
NumberOfAtoms    16
NumberOfSpecies  4
%block ChemicalSpeciesLabel
    1    8  O
    2    7  N
    3   14  Si
    4    1  H
%endblock ChemicalSpeciesLabel
# This overrides Defaults.fdf conf
MD.TypeOfRun                CG # CG, Verlet
AtomicCoordinatesFormat NotScaledCartesianAng
%block AtomicCoordinatesAndAtomicSpecies
     0.871420000     3.740689000     0.000000000    1
    -3.073620000     0.797194000     0.000000000    2
     1.925949000     1.075908000     0.000000000    2
     0.978044000    -1.830773000     0.000000000    2
    -2.130352000    -2.006333000     0.000000000    2
     3.767725000    -1.090356000     0.000000000    2
    -1.319167000     0.932524000     0.000000000    3
    -0.573353000    -1.128459000     0.000000000    3
     0.499455000     2.232386000     0.000000000    3
     2.127451000    -0.633529000     0.000000000    3
    -3.443129000    -0.822945000     0.000000000    3
     2.805644000     1.646810000     0.000000000    4
    -4.825746000    -1.387455000     0.000000000    4
     4.039823000    -2.084493000     0.000000000    4
     4.564096000    -0.433838000     0.000000000    4
    -2.281251000    -3.035809000     0.000000000    4
%endblock AtomicCoordinatesAndAtomicSpecies
%include ../../Defaults.fdf
************************** End of input data file *****************************

reinit: -----------------------------------------------------------------------
reinit: System Name:
reinit: -----------------------------------------------------------------------
reinit: System Label: Guanine
reinit: -----------------------------------------------------------------------

initatom: Reading input for the pseudopotentials and atomic orbitals ----------
Species number:   1 Atomic number:    8 Label: O
Species number:   2 Atomic number:    7 Label: N
Species number:   3 Atomic number:   14 Label: Si
Species number:   4 Atomic number:    1 Label: H

Ground state valence configuration:   2s02  2p04
Reading pseudopotential information in formatted form from O.psf

Pseudopotential generated from a relativistic atomic calculation

Valence configuration for pseudopotential generation:
2s( 2.00) rc: 0.45
2p( 4.00) rc: 0.92
3d( 0.00) rc: 2.24
4f( 0.00) rc: 0.25
Ground state valence configuration:   2s02  2p03
Reading pseudopotential information in formatted form from N.psf

[...]

Valence configuration for pseudopotential generation:
2s( 2.00) rc: 0.94
2p( 3.00) rc: 0.59
3d( 0.00) rc: 3.46
4f( 0.00) rc: 2.47
Ground state valence configuration:   3s02  3p02
Reading pseudopotential information in formatted form from Si.psf

[...]

Valence configuration for pseudopotential generation:
3s( 2.00) rc: 1.67
3p( 2.00) rc: 2.04
3d( 0.00) rc: 2.89
4f( 0.00) rc: 2.49
Ground state valence configuration:   1s01
Reading pseudopotential information in formatted form from H.psf

Pseudopotential generated from a relativistic atomic calculation

Valence configuration for pseudopotential generation:
1s( 1.00) rc: 0.01
2p( 0.00) rc: 0.60
3d( 0.00) rc: 1.99
4f( 0.00) rc: 2.49
For O, standard SIESTA heuristics set lmxkb to 3
 (one more than the basis l, including polarization orbitals).
Use PS.lmax or PS.KBprojectors blocks to override.
For N, standard SIESTA heuristics set lmxkb to 3
 (one more than the basis l, including polarization orbitals).
Use PS.lmax or PS.KBprojectors blocks to override.
For Si, standard SIESTA heuristics set lmxkb to 3
 (one more than the basis l, including polarization orbitals).
Use PS.lmax or PS.KBprojectors blocks to override.
For H, standard SIESTA heuristics set lmxkb to 2
 (one more than the basis l, including polarization orbitals).
Use PS.lmax or PS.KBprojectors blocks to override.

<basis_specs>
O                    Z=   8    Mass=  16.000        Charge= 0.17977+309
Lmxo=1 Lmxkb= 3    BasisType=split      Semic=F
L=0  Nsemic=0  Cnfigmx=2
          i=1  nzeta=2  polorb=0  (2s)
            splnorm:   0.28000
               vcte:    0.0000
               rinn:    0.0000
               qcoe:    0.0000
               qyuk:    0.0000
               qwid:   0.10000E-01
                rcs:    0.0000      0.0000
            lambdas:    1.0000      1.0000
L=1  Nsemic=0  Cnfigmx=2
          i=1  nzeta=2  polorb=1  (2p)
            splnorm:   0.28000
               vcte:    0.0000
               rinn:    0.0000
               qcoe:    0.0000
               qyuk:    0.0000
               qwid:   0.10000E-01
                rcs:    0.0000      0.0000
            lambdas:    1.0000      1.0000
L=0  Nkbl=1  erefs: 0.17977+309
L=1  Nkbl=1  erefs: 0.17977+309
L=2  Nkbl=1  erefs: 0.17977+309
L=3  Nkbl=1  erefs: 0.17977+309
</basis_specs>

atom: Called for O                     (Z =   8)

read_vps: Pseudopotential generation method:
read_vps: ATM4.2.7  Troullier-Martins
Valence charge for ps generation:    6.00000

xc_check: Exchange-correlation functional:
xc_check: GGA Perdew, Burke & Ernzerhof 1996
V l=0 = -2*Zval/r beyond r=  1.1000
V l=1 = -2*Zval/r beyond r=  1.1000
V l=2 = -2*Zval/r beyond r=  2.2154
V l=3 = -2*Zval/r beyond r=  1.1000
All V_l potentials equal beyond r=  2.2154
This should be close to max(r_c) in ps generation
All pots = -2*Zval/r beyond r=  2.2154

VLOCAL1: 99.0% of the norm of Vloc inside      8.845 Ry
VLOCAL1: 99.9% of the norm of Vloc inside     20.157 Ry
atom: Maximum radius for 4*pi*r*r*local-pseudopot. charge    2.67231
atom: Maximum radius for r*vlocal+2*Zval:    2.32897
GHOST: No ghost state for L =  0
GHOST: No ghost state for L =  1
GHOST: No ghost state for L =  2
GHOST: No ghost state for L =  3

KBgen: Kleinman-Bylander projectors:
   l= 0   rc=  2.243238   el= -1.759686   Ekb=**********   kbcos= -0.171774
   l= 1   rc=  2.328968   el= -0.663873   Ekb=-14.506792   kbcos= -0.519897
   l= 2   rc=  2.573941   el=  0.002031   Ekb= -1.137373   kbcos= -0.019581
   l= 3   rc=  2.606321   el=  0.003153   Ekb= -1.013546   kbcos= -0.003122

KBgen: Total number of Kleinman-Bylander projectors:   16
atom: -------------------------------------------------------------------------

atom: SANKEY-TYPE ORBITALS:
atom: Selected multiple-zeta basis: split

SPLIT: Orbitals with angular momentum L= 0

SPLIT: Basis orbitals for state 2s

SPLIT: PAO cut-off radius determined from an
SPLIT: energy shift=  0.002000 Ry

   izeta = 1
                 lambda =    1.000000
                     rc =    4.243912
                 energy =   -1.758270
                kinetic =    3.286084
    potential(screened) =   -5.044353
       potential(ionic) =  -12.921184

   izeta = 2
                 rmatch =    2.187845
              splitnorm =    0.280000
                 energy =   -0.885018
                kinetic =    8.134434
    potential(screened) =   -9.019452
       potential(ionic) =  -17.710645

[...]

SPLIT: Basis orbitals for state 2p

[...]

POLgen: Perturbative polarization orbital with L=  2

POLgen: Polarization orbital for state 2p

   izeta = 1
                     rc =    5.314825
                 energy =    1.970580
                kinetic =    3.886128
    potential(screened) =   -1.915547
       potential(ionic) =   -7.749584
atom: Total number of Sankey-type orbitals: 13

atm_pop: Valence configuration (for local Pseudopot. screening):
 2s( 2.00)
 2p( 4.00)
Vna: chval, zval:    6.00000   6.00000

Vna:  Cut-off radius for the neutral-atom potential:   5.314825

atom: _________________________________________________________________________

[...]

KBgen: Kleinman-Bylander projectors:
   l= 0   rc=  3.417763   el= -1.365098   Ekb= -4.433130   kbcos= -0.707855
   l= 1   rc=  3.375302   el= -0.521201   Ekb=-13.264039   kbcos= -0.535594
   l= 2   rc=  3.872880   el=  0.001991   Ekb= -0.641094   kbcos= -0.062456
   l= 3   rc=  3.970931   el=  0.003093   Ekb= -0.474517   kbcos= -0.018236

[...]

<basis_specs>
Si                   Z=  14    Mass=  28.090        Charge= 0.17977+309
Lmxo=1 Lmxkb= 3    BasisType=split      Semic=F
L=0  Nsemic=0  Cnfigmx=3
          i=1  nzeta=2  polorb=0  (3s)
            splnorm:   0.28000
               vcte:    0.0000
               rinn:    0.0000
               qcoe:    0.0000
               qyuk:    0.0000
               qwid:   0.10000E-01
                rcs:    0.0000      0.0000
            lambdas:    1.0000      1.0000
L=1  Nsemic=0  Cnfigmx=3
          i=1  nzeta=2  polorb=1  (3p)
            splnorm:   0.28000
               vcte:    0.0000
               rinn:    0.0000
               qcoe:    0.0000
               qyuk:    0.0000
               qwid:   0.10000E-01
                rcs:    0.0000      0.0000
            lambdas:    1.0000      1.0000
L=0  Nkbl=1  erefs: 0.17977+309
L=1  Nkbl=1  erefs: 0.17977+309
L=2  Nkbl=1  erefs: 0.17977+309
L=3  Nkbl=1  erefs: 0.17977+309
</basis_specs>

[...]

KBgen: Kleinman-Bylander projectors:
   l= 0   rc=  3.075247   el= -0.794092   Ekb=  5.879390   kbcos=  0.167461
   l= 1   rc=  3.153101   el= -0.300068   Ekb=  2.642817   kbcos=  0.058301
   l= 2   rc=  3.273594   el=  0.001958   Ekb= -1.185135   kbcos= -0.104411
   l= 3   rc=  3.232927   el=  0.003046   Ekb= -0.497174   kbcos= -0.015889

[...]

SPLIT: Basis orbitals for state 3p

[...]

POLgen: Polarization orbital for state 3p

[...]

atm_pop: Valence configuration (for local Pseudopot. screening):
 3s( 2.00)
 3p( 2.00)
Vna: chval, zval:    4.00000   4.00000

[...]

<basis_specs>
H                    Z=   1    Mass=  1.0100        Charge= 0.17977+309
Lmxo=0 Lmxkb= 2    BasisType=split      Semic=F
L=0  Nsemic=0  Cnfigmx=1
          i=1  nzeta=2  polorb=1  (1s)
            splnorm:   0.62000
               vcte:    0.0000
               rinn:    0.0000
               qcoe:    0.0000
               qyuk:    0.0000
               qwid:   0.10000E-01
                rcs:    0.0000      0.0000
            lambdas:    1.0000      1.0000
L=0  Nkbl=1  erefs: 0.17977+309
L=1  Nkbl=1  erefs: 0.17977+309
L=2  Nkbl=1  erefs: 0.17977+309
</basis_specs>

atom: Called for H                     (Z =   1)

read_vps: Pseudopotential generation method:
read_vps: ATM4.2.7  Troullier-Martins
Valence charge for ps generation:    1.00000

xc_check: Exchange-correlation functional:
xc_check: GGA Perdew, Burke & Ernzerhof 1996
V l=0 = -2*Zval/r beyond r=  0.0098
V l=1 = -2*Zval/r beyond r=  0.5817
V l=2 = -2*Zval/r beyond r=  1.9372
All V_l potentials equal beyond r=  1.9372
This should be close to max(r_c) in ps generation
All pots = -2*Zval/r beyond r=  1.9372

VLOCAL1: 99.0% of the norm of Vloc inside     11.567 Ry
VLOCAL1: 99.9% of the norm of Vloc inside     26.362 Ry
atom: Maximum radius for 4*pi*r*r*local-pseudopot. charge    2.25106
atom: Maximum radius for r*vlocal+2*Zval:    1.91306
GHOST: No ghost state for L =  0
GHOST: No ghost state for L =  1
GHOST: No ghost state for L =  2

KBgen: Kleinman-Bylander projectors:
   l= 0   rc=  2.036604   el= -0.477180   Ekb= -6.081590   kbcos= -0.277285
[...]
   scf:    8    -2396.283541    -2396.283541    -2396.283541  0.000000 -3.709203  0.000006
     spin moment: S , {S} =    0.00000  -0.00000   0.00000  -0.00000
   scf:    9    -2396.283541    -2396.283541    -2396.283541  0.000000 -3.709204  0.000001
     spin moment: S , {S} =    0.00000  -0.00000   0.00000  -0.00000
   scf:   10    -2396.283541    -2396.283541    -2396.283541  0.000000 -3.709205  0.000001
     spin moment: S , {S} =    0.00000  -0.00000   0.00000  -0.00000

[...]

cgvc: Finished line minimization   55.  Mean atomic displacement =    0.0002

                        Begin CG opt. move =    139

outcoor: Atomic coordinates (Ang):
    0.89499391    3.93962743   -0.00000012   1       1  O
   -3.11142040    0.86067020   -0.00000006   2       2  N
    1.96858488    1.21081697    0.00000001   2       3  N
    1.01996570   -1.79345982    0.00000003   2       4  N
   -2.11919273   -1.99118873   -0.00000001   2       5  N
    3.82538597   -1.07588459   -0.00000001   2       6  N
   -1.30586761    1.01306632    0.00000043   3       7  Si
   -0.55937368   -1.05926110   -0.00000012   3       8  Si
    0.49324909    2.38732630   -0.00000019   3       9  Si
    2.17336823   -0.53969473    0.00000001   3      10  Si
   -3.47599946   -0.80524044   -0.00000008   3      11  Si
    2.86459403    1.79153918    0.00000000   4      12  H
   -4.83748549   -1.43239859    0.00000000   4      13  H
    4.03501822   -2.10638793    0.00000000   4      14  H
    4.66096981   -0.44684999    0.00000000   4      15  H
   -2.23901898   -3.04469802   -0.00000000   4      16  H

outcell: Unit cell vectors (Ang):
       17.917409    0.000000    0.000000
        0.000000   14.516648    0.000000
        0.000000    0.000000    9.854683

outcell: Cell vector modules (Ang)   :   17.917409   14.516648    9.854683
outcell: Cell angles (23,13,12) (deg):     90.0000     90.0000     90.0000
outcell: Cell volume (Ang**3)        :   2563.2101
<dSpData1D:S at geom step 139
  <sparsity:sparsity for geom step 139
    nrows_g=168 nrows=48 sparsity=.2639 nnzs=7448, refcount: 8>
  <dData1D:(new from dSpData1D) n=7448, refcount: 1>
refcount: 1>
new_DM -- step:   140
Re-using DM from previous geometries...
Number of DMs in history: 1
 DM extrapolation coefficients:
1   1.00000
New DM after history re-use:
<dSpData2D:SpM extrapolated using coords
  <sparsity:sparsity for geom step 139
    nrows_g=168 nrows=48 sparsity=.2639 nnzs=7448, refcount: 10>
  <dData2D:(temp array for extrapolation) n=7448 m=8, refcount: 1>
refcount: 1>
     spin moment: S , {S} =    0.00000  -0.00000   0.00000  -0.00000
No. of atoms with KB's overlaping orbs in proc 0. Max # of overlaps:      16     142
New grid distribution:   1
           1       1:  100    1:   41    1:   20
           2       1:  100    1:   41   21:   40
           3       1:  100    1:   41   41:   60
           4       1:  100   42:   81    1:   20
           5       1:  100   42:   81   21:   40
           6       1:  100   42:   81   41:   60

InitMesh: MESH =   200 x   162 x   120 =     3888000
InitMesh: (bp) =   100 x    81 x    60 =      486000
InitMesh: Mesh cutoff (required, used) =   340.000   344.191 Ry
ExtMesh (bp) on 0 =   204 x   141 x   132 =     3796848
New grid distribution:   2
           1       1:   59    1:   12    1:   60
           2      60:  100    1:   13    1:   60
           3      60:  100   14:   81   22:   60
           4       1:   59   13:   81    1:   19
           5       1:   59   13:   81   20:   60
           6      60:  100   14:   81    1:   21
New grid distribution:   3
           1       1:   59    1:   19    1:   60
           2      60:  100   20:   81    1:   26
           3      60:  100    1:   19    1:   60
           4       1:   59   20:   81    1:   25
           5      60:  100   20:   81   27:   60
           6       1:   59   20:   81   26:   60
Setting up quadratic distribution...
ExtMesh (bp) on 0 =   163 x   112 x   172 =     3140032
PhiOnMesh: Number of (b)points on node 0 =                42480
PhiOnMesh: nlist on node 0 =               786386

        iscf     Eharris(eV)        E_KS(eV)     FreeEng(eV)     dDmax    Ef(eV) dHmax(eV)
   scf:    1    -2396.282932    -2396.283549    -2396.283549  0.000053 -3.710173  0.001839
     spin moment: S , {S} =    0.00000  -0.00000   0.00000  -0.00000
   scf:    2    -2396.283537    -2396.283546    -2396.283546  0.000150 -3.710612  0.008457
     spin moment: S , {S} =    0.00000  -0.00000   0.00000  -0.00000
   scf:    3    -2396.283551    -2396.283550    -2396.283550  0.000112 -3.710250  0.000210
     spin moment: S , {S} =    0.00000  -0.00000   0.00000  -0.00000
   scf:    4    -2396.283550    -2396.283550    -2396.283550  0.000003 -3.710264  0.000112
     spin moment: S , {S} =    0.00000  -0.00000   0.00000  -0.00000
   scf:    5    -2396.283550    -2396.283550    -2396.283550  0.000002 -3.710279  0.000026
     spin moment: S , {S} =    0.00000  -0.00000   0.00000  -0.00000
   scf:    6    -2396.283550    -2396.283550    -2396.283550  0.000001 -3.710283  0.000011
     spin moment: S , {S} =    0.00000  -0.00000   0.00000  -0.00000
   scf:    7    -2396.283550    -2396.283550    -2396.283550  0.000000 -3.710284  0.000004
     spin moment: S , {S} =    0.00000  -0.00000   0.00000  -0.00000
   scf:    8    -2396.283550    -2396.283550    -2396.283550  0.000000 -3.710284  0.000001
     spin moment: S , {S} =    0.00000  -0.00000   0.00000  -0.00000
   scf:    9    -2396.283550    -2396.283550    -2396.283550  0.000000 -3.710285  0.000001
     spin moment: S , {S} =    0.00000  -0.00000   0.00000  -0.00000

SCF Convergence by DM+H criterion
max |DM_out - DM_in|         :     0.0000000770
max |H_out - H_in|      (eV) :     0.0000005578
SCF cycle converged after 9 iterations

Using DM_out to compute the final energy and forces
No. of atoms with KB's overlaping orbs in proc 0. Max # of overlaps:      16     142

siesta: E_KS(eV) =            -2396.2835
     spin moment: S , {S} =    0.00000  -0.00000   0.00000  -0.00000

siesta: Atomic forces (eV/Ang):
     1    0.001658   -0.002267    0.000019
     2    0.001162    0.002237   -0.000000
     3    0.002422   -0.001927    0.000000
     4    0.000355   -0.003099    0.000000
     5    0.001278   -0.000559   -0.000000
     6    0.001860   -0.000020   -0.000000
     7    0.000548    0.003212    0.000001
     8    0.000159   -0.000796   -0.000000
     9   -0.000189   -0.000801   -0.000001
    10    0.002737    0.000027    0.000000
    11    0.000450   -0.001781   -0.000000
    12    0.001801    0.001342   -0.000000
    13    0.001335   -0.000029   -0.000000
    14   -0.000044   -0.002559   -0.000000
    15   -0.001061    0.000486    0.000000
    16   -0.001412   -0.000227    0.000000
   Tot    0.013060   -0.006762    0.000018
   Max    0.003212
   Res    0.001279    sqrt( Sum f_i^2 / 3N )
   Max    0.003212    constrained

Stress tensor Voigt[x,y,z,yz,xz,xy] (kbar):       -0.26        0.98       -0.14       -0.00       -0.00        0.54
(Free)E + p*V (eV/cell)    -2396.5974
Target enthalpy (eV/cell)    -2396.2835

mulliken: Atomic and Orbital Populations:

[...]

Atom      Orb        Charge      Spin       Svec
    1  7 2pz       -0.00146   0.00000     -0.000   0.000  -0.000
    1  9 3Pdxy      0.00757   0.00000     -0.000  -0.000   0.000
    1 10 3Pdyz      0.00954   0.00000      0.000  -0.000  -0.000
    1 11 3Pdz2      0.00173   0.00000      0.000  -0.000  -0.000
    1 12 3Pdxz      0.00043   0.00000     -0.000  -0.000   0.000
    1 13 3Pdx2-y2   0.00719   0.00000      0.000  -0.000  -0.000
    1     Total     6.46624   0.00000      0.000   0.000  -0.000

[...]

Atom      Orb        Charge      Spin       Svec
    7  9 3Pdxy      0.24300   0.00000      0.000   0.000  -0.000
    7 10 3Pdyz      0.03039   0.00000      0.000  -0.000  -0.000
    7 11 3Pdz2      0.01209   0.00000     -0.000   0.000  -0.000
    7 12 3Pdxz      0.13912   0.00000      0.000  -0.000   0.000
    7 13 3Pdx2-y2   0.11299   0.00000     -0.000   0.000  -0.000
    7     Total     3.84831   0.00000      0.000   0.000  -0.000

    8  5 3px       -0.03253   0.00000      0.000  -0.000   0.000
    8  9 3Pdxy      0.25836   0.00000      0.000  -0.000   0.000
    8 10 3Pdyz      0.10992   0.00000      0.000  -0.000  -0.000
    8 11 3Pdz2      0.01321   0.00000     -0.000  -0.000   0.000
    8 12 3Pdxz      0.15540   0.00000     -0.000   0.000  -0.000
    8 13 3Pdx2-y2   0.18798   0.00000     -0.000  -0.000   0.000
    8     Total     3.64631   0.00000      0.000  -0.000   0.000

[...]

   11  9 3Pdxy      0.24338   0.00000      0.000  -0.000   0.000
   11 10 3Pdyz      0.12474   0.00000     -0.000  -0.000  -0.000
   11 11 3Pdz2      0.00935   0.00000      0.000  -0.000  -0.000
   11 12 3Pdxz      0.05250   0.00000     -0.000   0.000  -0.000
   11 13 3Pdx2-y2   0.18404   0.00000     -0.000  -0.000  -0.000
   11     Total     3.44937   0.00000     -0.000   0.000  -0.000

[...]

Species: H

Atom      Orb        Charge      Spin       Svec
   12  3 2Ppy       0.02917   0.00000      0.000   0.000  -0.000
   12  4 2Ppz       0.03700   0.00000     -0.000  -0.000  -0.000
   12  5 2Ppx       0.02359   0.00000     -0.000  -0.000  -0.000
   12     Total     0.77298   0.00000     -0.000  -0.000  -0.000

[...]

   16  3 2Ppy       0.02997   0.00000     -0.000   0.000  -0.000
   16  4 2Ppz       0.03822   0.00000     -0.000   0.000   0.000
   16  5 2Ppx       0.02260   0.00000     -0.000   0.000   0.000
   16     Total     0.78289   0.00000     -0.000   0.000  -0.000

Total              56.00000   0.00000     -0.000   0.000  -0.000

outcoor: Relaxed atomic coordinates (Ang):
    0.89499391    3.93962743   -0.00000012   1       1  O
   -3.11142040    0.86067020   -0.00000006   2       2  N
    1.96858488    1.21081697    0.00000001   2       3  N
    1.01996570   -1.79345982    0.00000003   2       4  N
   -2.11919273   -1.99118873   -0.00000001   2       5  N
    3.82538597   -1.07588459   -0.00000001   2       6  N
   -1.30586761    1.01306632    0.00000043   3       7  Si
   -0.55937368   -1.05926110   -0.00000012   3       8  Si
    0.49324909    2.38732630   -0.00000019   3       9  Si
    2.17336823   -0.53969473    0.00000001   3      10  Si
   -3.47599946   -0.80524044   -0.00000008   3      11  Si
    2.86459403    1.79153918    0.00000000   4      12  H
   -4.83748549   -1.43239859    0.00000000   4      13  H
    4.03501822   -2.10638793    0.00000000   4      14  H
    4.66096981   -0.44684999    0.00000000   4      15  H
   -2.23901898   -3.04469802   -0.00000000   4      16  H

siesta: Eigenvalues (eV):
ik =     1
  -22.0708  -22.0708  -21.9083  -21.9083  -21.3905  -21.3905  -20.9999  -20.9999  -19.9893  -19.9893
  -19.4820  -19.4820  -14.0238  -14.0238  -13.3128  -13.3128  -13.2420  -13.2420  -13.0299  -13.0299
  -12.6333  -12.6333  -11.6069  -11.6069  -10.8644  -10.8644  -10.8078  -10.8078   -9.3096   -9.3096
   -9.0841   -9.0841   -8.8853   -8.8853   -8.7614   -8.7614   -8.3208   -8.3208   -7.8836   -7.8836
   -7.5403   -7.5403   -7.4360   -7.4360   -6.9898   -6.9898   -6.6620   -6.6620   -6.4072   -6.4072
   -6.2984   -6.2984   -5.9918   -5.9918   -4.4980   -4.4980   -2.5059   -2.5059   -2.4399   -2.4399
   -2.0836   -2.0836   -1.9823   -1.9823   -1.6647   -1.6647   -1.3702   -1.3702   -0.9326   -0.9326
   -0.5845   -0.5845    0.1640    0.1640    0.1963    0.1963    0.4673    0.4673    0.6111    0.6111
    1.1924    1.1924    1.3002    1.3002    1.5459    1.5459    2.2165    2.2165    2.5538    2.5538
    2.5910    2.5910    2.9095    2.9095    3.1800    3.1800    3.6530    3.6530    3.7640    3.7640
    4.1871    4.1871    4.4289    4.4289    4.5730    4.5730    4.9303    4.9303    5.1100    5.1100
    5.4198    5.4198    5.4645    5.4645    5.7426    5.7426    5.8223    5.8223    6.1959    6.1959
    6.4567    6.4567    7.0235    7.0235    7.1313    7.1313    7.3447    7.3447    7.6684    7.6684
    8.0664    8.0664    8.4484    8.4484    8.5003    8.5003    8.5450    8.5450    9.0254    9.0254
    9.1055    9.1055    9.6270    9.6270    9.6596    9.6596   10.2380   10.2380   10.6805   10.6805
   10.6916   10.6916   10.8606   10.8606   11.7648   11.7648   11.8356   11.8356   11.9268   11.9268
   12.2110   12.2110   12.2533   12.2533   13.2405   13.2405   13.5689   13.5689   13.9151   13.9151
   13.9783   13.9783   14.5382   14.5382   15.6929   15.6929   16.0410   16.0410   16.8196   16.8196
   18.0536   18.0536   18.2274   18.2274   18.3839   18.3839   19.1000   19.1000   19.9293   19.9293
   21.6949   21.6949   22.4274   22.4274   22.9828   22.9828   23.4410   23.4410   23.8124   23.8124
   24.6803   24.6803   26.7881   26.7881   28.6815   28.6815   29.3233   29.3233   29.5651   29.5651
   29.9038   29.9038   30.1664   30.1664   30.5816   30.5816   30.7227   30.7227   30.8677   30.8677
   32.2226   32.2226   33.9568   33.9568   34.1360   34.1360   34.7196   34.7196   35.0535   35.0535
   35.2821   35.2821   36.4762   36.4762   36.7745   36.7745   37.1626   37.1626   37.4172   37.4172
   38.0923   38.0923   39.2474   39.2474   39.7943   39.7943   40.6029   40.6029   40.7333   40.7333
   41.0053   41.0053   41.2361   41.2361   42.7878   42.7878   43.0802   43.0802   43.8205   43.8205
   43.8655   43.8655   44.5269   44.5269   44.5847   44.5847   45.1928   45.1928   46.1514   46.1514
   46.6524   46.6524   47.2687   47.2687   49.0398   49.0398   49.2060   49.2060   50.2435   50.2435
   50.7703   50.7703   51.1203   51.1203   52.3769   52.3769   54.6486   54.6486   54.7435   54.7435
   55.6218   55.6218   56.3057   56.3057   58.0207   58.0207   58.5879   58.5879   60.1025   60.1025
   60.7814   60.7814   61.3093   61.3093   62.0276   62.0276   64.1453   64.1453   66.9841   66.9841
   67.0577   67.0577   68.5405   68.5405   70.5393   70.5393   73.2554   73.2554   89.9394   89.9394
   93.2479   93.2479   98.0902   98.0902  103.0321  103.0321  103.3596  103.3596  110.2519  110.2519
  123.7414  123.7414  130.6388  130.6388  140.9360  140.9360
siesta: Fermi energy =      -3.710285 eV

siesta: Program's energy decomposition (eV):
siesta: Ebs     =      -658.859700
siesta: Eions   =      2040.955082
siesta: Ena     =       223.142245
siesta: Ekin    =      1679.117248
siesta: Enl     =     -1651.280002
siesta: Eso     =        -0.002376
siesta: Edftu   =         0.000000
siesta: DEna    =        30.591605
siesta: DUscf   =         8.039457
siesta: DUext   =         0.000000
siesta: Exc     =      -644.936644
siesta: eta*DQ  =         0.000000
siesta: Emadel  =         0.000000
siesta: Emeta   =         0.000000
siesta: Emolmec =         0.000000
siesta: Ekinion =         0.000000
siesta: Eharris =     -2396.283550
siesta: Etot    =     -2396.283550
siesta: FreeEng =     -2396.283550

siesta: Final energy (eV):
siesta:  Band Struct. =    -658.859700
siesta:       Kinetic =    1679.117248
siesta:       Hartree =    4029.619529
siesta:       Edftu   =       0.000000
siesta:       Eso     =      -0.002376
siesta:    Ext. field =       0.000000
siesta:   Exch.-corr. =    -644.936644
siesta:  Ion-electron =   -9559.862022
siesta:       Ion-ion =    2099.780716
siesta:       Ekinion =       0.000000
siesta:         Total =   -2396.283550
siesta:         Fermi =      -3.710285

siesta: Stress tensor (static) (eV/Ang**3):
siesta:    -0.000162    0.000336   -0.000000
siesta:     0.000336    0.000614   -0.000000
siesta:    -0.000000   -0.000000   -0.000084

siesta: Cell volume =       2563.210132 Ang**3

siesta: Pressure (static):
siesta:                Solid            Molecule  Units
siesta:          -0.00000133         -0.00000135  Ry/Bohr**3
siesta:          -0.00012243         -0.00012401  eV/Ang**3
siesta:          -0.19616342         -0.19868329  kBar
(Free)E+ p_basis*V_orbitals  =       -2385.293874
(Free)Eharris+ p_basis*V_orbitals  =       -2385.293874
     spin moment: S , {S} =    0.00000  -0.00000   0.00000  -0.00000

siesta: Electric dipole (a.u.)  =    1.116360   -3.173990   -0.000000
siesta: Electric dipole (Debye) =    2.837506   -8.067483   -0.000000

cite: Please see "Guanine.bib" for an exhaustive BiBTeX file.
cite: Please clearly indicate Siesta version in published work: v4.1.5-1-g384057250
cite: This calculation has made use of the following articles
cite: which are encouraged to be cited in a published work.
        Primary SIESTA paper
          DOI: www.doi.org/10.1088/0953-8984/14/11/302
        Spin-orbit coupling (on-site approximation)
          DOI: www.doi.org/10.1088/0953-8984/19/19/489001

WARNING: alloc-realloc-dealloc name mismatch
         Name: atomlist isa
         Node:     0
         Subsequent mismatches will not be reported
>> End of run:  12-MAY-2023   4:22:56
Job completed