>> Start of run:  22-MAY-2023   4:08:48

reinit: Reading from standard input
reinit: Dumped input in INPUT_TMP.31276
************************** Dump of input data file ****************************
SystemLabel      GC
NumberOfAtoms    29
NumberOfSpecies  4
%block ChemicalSpeciesLabel
    1    8  O
    2    7  N
    3   14  Si
    4    1  H
%endblock ChemicalSpeciesLabel
AtomicCoordinatesFormat NotScaledCartesianAng
%block AtomicCoordinatesAndAtomicSpecies
     0.894993910     3.939627430     0.000000000    1
    -3.111420400     0.860670200     0.000000000    2
     1.968584880     1.210816970     0.000000000    2
     1.019965700    -1.793459820     0.000000000    2
    -2.119192730    -1.991188730     0.000000000    2
     3.825385970    -1.075884590     0.000000000    2
    -1.305867610     1.013066320     0.000000000    3
    -0.559373680    -1.059261100     0.000000000    3
     0.493249090     2.387326300     0.000000000    3
     2.173368230    -0.539694730     0.000000000    3
    -3.475999460    -0.805240440     0.000000080    3
     2.864594030     1.791539180     0.000000000    4
    -4.837485490    -1.432398590     0.000000000    4
     4.035018220    -2.106387930     0.000000000    4
     4.660969810    -0.446849990     0.000000000    4
    -2.239018980    -3.044698020     0.000000000    4   ####
     4.444147430     4.768405160     0.000000000    3
     6.313106920     6.028048790     0.000000000    3
     5.854174540     2.026666940     0.000000000    3
     7.921767260     4.533258160     0.000000000    3
     4.503677380     3.083452700     0.000000000    2
     2.814148230     5.398465390     0.000000000    2
     7.498063410     2.817757350     0.000000000    2
     6.593470620     7.498271310     0.000000000    4
     9.417178640     4.752110700     0.000000000    4
     2.569689240     6.416931340     0.000000000    4
     1.987407050     4.741617260     0.000000000    4
     5.913450300     0.444224910     0.000000000    1
     8.269719000     2.090789990     0.000000000    4
%endblock AtomicCoordinatesAndAtomicSpecies
%block Geometry.Constraints
    molecule [1 -- 16] 0.0 0.0 1.0 # fix one of the molecules along z axis
    molecule [17 -- 29]
%endblock
%include ../../Defaults.fdf
************************** End of input data file *****************************

reinit: -----------------------------------------------------------------------
reinit: System Name:
reinit: -----------------------------------------------------------------------
reinit: System Label: GC
reinit: -----------------------------------------------------------------------

initatom: Reading input for the pseudopotentials and atomic orbitals ----------
Species number:   1 Atomic number:    8 Label: O
Species number:   2 Atomic number:    7 Label: N
Species number:   3 Atomic number:   14 Label: Si
Species number:   4 Atomic number:    1 Label: H

Ground state valence configuration:   2s02  2p04
Reading pseudopotential information in formatted form from O.psf

Pseudopotential generated from a relativistic atomic calculation

Valence configuration for pseudopotential generation:
2s( 2.00) rc: 0.45
2p( 4.00) rc: 0.92
3d( 0.00) rc: 2.24
4f( 0.00) rc: 0.25
Ground state valence configuration:   2s02  2p03
Reading pseudopotential information in formatted form from N.psf

[...]

Valence configuration for pseudopotential generation:
2s( 2.00) rc: 0.94
2p( 3.00) rc: 0.59
3d( 0.00) rc: 3.46
4f( 0.00) rc: 2.47
Ground state valence configuration:   3s02  3p02
Reading pseudopotential information in formatted form from Si.psf

[...]

Valence configuration for pseudopotential generation:
3s( 2.00) rc: 1.67
3p( 2.00) rc: 2.04
3d( 0.00) rc: 2.89
4f( 0.00) rc: 2.49
Ground state valence configuration:   1s01
Reading pseudopotential information in formatted form from H.psf

Pseudopotential generated from a relativistic atomic calculation

Valence configuration for pseudopotential generation:
1s( 1.00) rc: 0.01
2p( 0.00) rc: 0.60
3d( 0.00) rc: 1.99
4f( 0.00) rc: 2.49
For O, standard SIESTA heuristics set lmxkb to 3
 (one more than the basis l, including polarization orbitals).
Use PS.lmax or PS.KBprojectors blocks to override.
For N, standard SIESTA heuristics set lmxkb to 3
 (one more than the basis l, including polarization orbitals).
Use PS.lmax or PS.KBprojectors blocks to override.
For Si, standard SIESTA heuristics set lmxkb to 3
 (one more than the basis l, including polarization orbitals).
Use PS.lmax or PS.KBprojectors blocks to override.
For H, standard SIESTA heuristics set lmxkb to 2
 (one more than the basis l, including polarization orbitals).
Use PS.lmax or PS.KBprojectors blocks to override.

<basis_specs>
O                    Z=   8    Mass=  16.000        Charge= 0.17977+309
Lmxo=1 Lmxkb= 3    BasisType=split      Semic=F
L=0  Nsemic=0  Cnfigmx=2
          i=1  nzeta=2  polorb=0  (2s)
            splnorm:   0.28000
               vcte:    0.0000
               rinn:    0.0000
               qcoe:    0.0000
               qyuk:    0.0000
               qwid:   0.10000E-01
                rcs:    0.0000      0.0000
            lambdas:    1.0000      1.0000
L=1  Nsemic=0  Cnfigmx=2
          i=1  nzeta=2  polorb=1  (2p)
            splnorm:   0.28000
               vcte:    0.0000
               rinn:    0.0000
               qcoe:    0.0000
               qyuk:    0.0000
               qwid:   0.10000E-01
                rcs:    0.0000      0.0000
            lambdas:    1.0000      1.0000
L=0  Nkbl=1  erefs: 0.17977+309
L=1  Nkbl=1  erefs: 0.17977+309
L=2  Nkbl=1  erefs: 0.17977+309
L=3  Nkbl=1  erefs: 0.17977+309
</basis_specs>

atom: Called for O                     (Z =   8)

read_vps: Pseudopotential generation method:
read_vps: ATM4.2.7  Troullier-Martins
Valence charge for ps generation:    6.00000

xc_check: Exchange-correlation functional:
xc_check: GGA Perdew, Burke & Ernzerhof 1996
V l=0 = -2*Zval/r beyond r=  1.1000
V l=1 = -2*Zval/r beyond r=  1.1000
V l=2 = -2*Zval/r beyond r=  2.2154
V l=3 = -2*Zval/r beyond r=  1.1000
All V_l potentials equal beyond r=  2.2154
This should be close to max(r_c) in ps generation
All pots = -2*Zval/r beyond r=  2.2154

VLOCAL1: 99.0% of the norm of Vloc inside      8.845 Ry
VLOCAL1: 99.9% of the norm of Vloc inside     20.157 Ry
atom: Maximum radius for 4*pi*r*r*local-pseudopot. charge    2.67231
atom: Maximum radius for r*vlocal+2*Zval:    2.32897
GHOST: No ghost state for L =  0
GHOST: No ghost state for L =  1
GHOST: No ghost state for L =  2
GHOST: No ghost state for L =  3

KBgen: Kleinman-Bylander projectors:
   l= 0   rc=  2.243238   el= -1.759686   Ekb=**********   kbcos= -0.171774
   l= 1   rc=  2.328968   el= -0.663873   Ekb=-14.506792   kbcos= -0.519897
   l= 2   rc=  2.573941   el=  0.002031   Ekb= -1.137373   kbcos= -0.019581
   l= 3   rc=  2.606321   el=  0.003153   Ekb= -1.013546   kbcos= -0.003122

KBgen: Total number of Kleinman-Bylander projectors:   16
atom: -------------------------------------------------------------------------

atom: SANKEY-TYPE ORBITALS:
atom: Selected multiple-zeta basis: split

SPLIT: Orbitals with angular momentum L= 0

SPLIT: Basis orbitals for state 2s

SPLIT: PAO cut-off radius determined from an
SPLIT: energy shift=  0.002000 Ry

   izeta = 1
                 lambda =    1.000000
                     rc =    4.243912
                 energy =   -1.758270
                kinetic =    3.286084
    potential(screened) =   -5.044353
       potential(ionic) =  -12.921184

   izeta = 2
                 rmatch =    2.187845
              splitnorm =    0.280000
                 energy =   -0.885018
                kinetic =    8.134434
    potential(screened) =   -9.019452
       potential(ionic) =  -17.710645

[...]

SPLIT: Basis orbitals for state 2p

[...]

POLgen: Perturbative polarization orbital with L=  2

POLgen: Polarization orbital for state 2p

   izeta = 1
                     rc =    5.314825
                 energy =    1.970580
                kinetic =    3.886128
    potential(screened) =   -1.915547
       potential(ionic) =   -7.749584
atom: Total number of Sankey-type orbitals: 13

atm_pop: Valence configuration (for local Pseudopot. screening):
 2s( 2.00)
 2p( 4.00)
Vna: chval, zval:    6.00000   6.00000

Vna:  Cut-off radius for the neutral-atom potential:   5.314825

atom: _________________________________________________________________________

[...]

KBgen: Kleinman-Bylander projectors:
   l= 0   rc=  3.417763   el= -1.365098   Ekb= -4.433130   kbcos= -0.707855
   l= 1   rc=  3.375302   el= -0.521201   Ekb=-13.264039   kbcos= -0.535594
   l= 2   rc=  3.872880   el=  0.001991   Ekb= -0.641094   kbcos= -0.062456
   l= 3   rc=  3.970931   el=  0.003093   Ekb= -0.474517   kbcos= -0.018236

[...]

<basis_specs>
Si                   Z=  14    Mass=  28.090        Charge= 0.17977+309
Lmxo=1 Lmxkb= 3    BasisType=split      Semic=F
L=0  Nsemic=0  Cnfigmx=3
          i=1  nzeta=2  polorb=0  (3s)
            splnorm:   0.28000
               vcte:    0.0000
               rinn:    0.0000
               qcoe:    0.0000
               qyuk:    0.0000
               qwid:   0.10000E-01
                rcs:    0.0000      0.0000
            lambdas:    1.0000      1.0000
L=1  Nsemic=0  Cnfigmx=3
          i=1  nzeta=2  polorb=1  (3p)
            splnorm:   0.28000
               vcte:    0.0000
               rinn:    0.0000
               qcoe:    0.0000
               qyuk:    0.0000
               qwid:   0.10000E-01
                rcs:    0.0000      0.0000
            lambdas:    1.0000      1.0000
L=0  Nkbl=1  erefs: 0.17977+309
L=1  Nkbl=1  erefs: 0.17977+309
L=2  Nkbl=1  erefs: 0.17977+309
L=3  Nkbl=1  erefs: 0.17977+309
</basis_specs>

[...]

KBgen: Kleinman-Bylander projectors:
   l= 0   rc=  3.075247   el= -0.794092   Ekb=  5.879390   kbcos=  0.167461
   l= 1   rc=  3.153101   el= -0.300068   Ekb=  2.642817   kbcos=  0.058301
   l= 2   rc=  3.273594   el=  0.001958   Ekb= -1.185135   kbcos= -0.104411
   l= 3   rc=  3.232927   el=  0.003046   Ekb= -0.497174   kbcos= -0.015889

[...]

SPLIT: Basis orbitals for state 3p

[...]

POLgen: Polarization orbital for state 3p

[...]

atm_pop: Valence configuration (for local Pseudopot. screening):
 3s( 2.00)
 3p( 2.00)
Vna: chval, zval:    4.00000   4.00000

[...]

<basis_specs>
H                    Z=   1    Mass=  1.0100        Charge= 0.17977+309
Lmxo=0 Lmxkb= 2    BasisType=split      Semic=F
L=0  Nsemic=0  Cnfigmx=1
          i=1  nzeta=2  polorb=1  (1s)
            splnorm:   0.62000
               vcte:    0.0000
               rinn:    0.0000
               qcoe:    0.0000
               qyuk:    0.0000
               qwid:   0.10000E-01
                rcs:    0.0000      0.0000
            lambdas:    1.0000      1.0000
L=0  Nkbl=1  erefs: 0.17977+309
L=1  Nkbl=1  erefs: 0.17977+309
L=2  Nkbl=1  erefs: 0.17977+309
</basis_specs>

atom: Called for H                     (Z =   1)

read_vps: Pseudopotential generation method:
read_vps: ATM4.2.7  Troullier-Martins
Valence charge for ps generation:    1.00000

xc_check: Exchange-correlation functional:
xc_check: GGA Perdew, Burke & Ernzerhof 1996
V l=0 = -2*Zval/r beyond r=  0.0098
[...]

siesta: Atomic forces (eV/Ang):
     1    0.228764    0.464168   -0.000000
     2   -0.046717   -0.009899    0.000000
     3   -0.783649    0.356869   -0.000000
     4   -0.738864   -0.053925    0.000000
     5   -0.073722    0.115838    0.000000
     6   -1.617434   -0.617343   -0.000000
     7   -0.059002    0.252864   -0.000000
     8    0.435684   -0.239553   -0.000000
     9    0.232077   -1.261979    0.000000
    10    1.093096   -0.226319    0.000000
    11   -0.007896    0.045364   -0.000000
    12    0.349561    0.205851   -0.000000
    13    0.001004    0.094369    0.000000
    14   -0.202814   -0.025165    0.000000
    15    1.102850    0.765551    0.000000
    16    0.074987    0.127867    0.000000
    17   -1.123627    1.078029   -0.000000
    18    0.232308   -0.200660    0.000000
    19    0.236028    1.224340   -0.000000
    20   -0.004839    0.407760    0.000000
    21    0.336710   -1.086904    0.000000
    22    2.647700    1.106785    0.000000
    23   -0.261983   -0.561877   -0.000000
    24   -0.046370    0.066065    0.000000
    25   -0.060987   -0.048727    0.000000
    26    0.117794    0.229715    0.000000
    27   -1.184033   -0.963228   -0.000000
    28   -0.964263   -1.330081    0.000000
    29    0.077302    0.073518   -0.000000
   Tot   -0.010335   -0.010707    0.000000
   Max    2.647700
   Res    0.578333    sqrt( Sum f_i^2 / 3N )
   Max    0.000755    constrained

Stress tensor Voigt[x,y,z,yz,xz,xy] (kbar):       -0.92       -1.48       -0.13       -0.00        0.00       -1.43
(Free)E + p*V (eV/cell)    -4145.4923
Target enthalpy (eV/cell)    -4147.8049

mulliken: Atomic and Orbital Populations:

[...]

Atom      Orb        Charge      Spin       Svec
    1  7 2pz       -0.01545   0.00000      0.000  -0.000  -0.000
    1  9 3Pdxy      0.01049   0.00000     -0.000  -0.000  -0.000
    1 10 3Pdyz      0.00770   0.00000     -0.000   0.000  -0.000
    1 11 3Pdz2      0.00260   0.00000     -0.000  -0.000   0.000
    1 12 3Pdxz      0.00017   0.00000      0.000  -0.000  -0.000
    1 13 3Pdx2-y2   0.00597   0.00000      0.000  -0.000  -0.000
    1     Total     6.49271   0.00000     -0.000  -0.000   0.000

   28  7 2pz       -0.01156   0.00000      0.000   0.000   0.000
   28  8 2px       -0.00052   0.00000     -0.000   0.000   0.000
   28  9 3Pdxy      0.00961   0.00000      0.000   0.000   0.000
   28 10 3Pdyz      0.00912   0.00000     -0.000  -0.000   0.000
   28 11 3Pdz2      0.00190   0.00000     -0.000  -0.000  -0.000
   28 12 3Pdxz      0.00003   0.00000      0.000  -0.000  -0.000
   28 13 3Pdx2-y2   0.00721   0.00000      0.000   0.000  -0.000
   28     Total     6.50868   0.00000     -0.000   0.000  -0.000

[...]

Atom      Orb        Charge      Spin       Svec
    7  9 3Pdxy      0.24328   0.00000      0.000  -0.000   0.000
    7 10 3Pdyz      0.02980   0.00000     -0.000   0.000  -0.000
    7 11 3Pdz2      0.01183   0.00000      0.000   0.000   0.000
    7 12 3Pdxz      0.13960   0.00000     -0.000  -0.000  -0.000
    7 13 3Pdx2-y2   0.11458   0.00000      0.000  -0.000  -0.000
    7     Total     3.84244   0.00000      0.000  -0.000   0.000

    8  5 3px       -0.02246   0.00000     -0.000  -0.000  -0.000
    8  9 3Pdxy      0.26246   0.00000     -0.000  -0.000   0.000
    8 10 3Pdyz      0.10948   0.00000      0.000   0.000   0.000
    8 11 3Pdz2      0.01264   0.00000      0.000   0.000  -0.000
    8 12 3Pdxz      0.15949   0.00000     -0.000   0.000   0.000
    8 13 3Pdx2-y2   0.19039   0.00000     -0.000   0.000  -0.000
    8     Total     3.65217   0.00000     -0.000   0.000  -0.000

[...]

   20  9 3Pdxy      0.10215   0.00000      0.000  -0.000   0.000
   20 10 3Pdyz      0.13168   0.00000     -0.000  -0.000  -0.000
   20 11 3Pdz2      0.00790   0.00000      0.000  -0.000   0.000
   20 12 3Pdxz      0.02638   0.00000      0.000  -0.000  -0.000
   20 13 3Pdx2-y2   0.17564   0.00000      0.000  -0.000   0.000
   20     Total     3.52911   0.00000      0.000  -0.000   0.000

[...]

Species: H

Atom      Orb        Charge      Spin       Svec
   12  3 2Ppy       0.04289   0.00000      0.000  -0.000   0.000
   12  4 2Ppz       0.03281   0.00000     -0.000  -0.000   0.000
   12  5 2Ppx       0.04864   0.00000      0.000  -0.000   0.000
   12     Total     0.78423   0.00000     -0.000  -0.000   0.000

[...]

   29  3 2Ppy       0.02513   0.00000      0.000   0.000  -0.000
   29  4 2Ppz       0.03512   0.00000      0.000  -0.000  -0.000
   29  5 2Ppx       0.02713   0.00000      0.000  -0.000  -0.000
   29     Total     0.76515   0.00000     -0.000  -0.000  -0.000

Total              98.00000   0.00000      0.000  -0.000  -0.000

outcoor: Relaxed atomic coordinates (Ang):
    0.85492771    3.90281136    0.00000000   1       1  O
   -3.15148660    0.82385413    0.00000000   2       2  N
    1.92851868    1.17400090    0.00000000   2       3  N
    0.97989950   -1.83027589    0.00000000   2       4  N
   -2.15925893   -2.02800480    0.00000000   2       5  N
    3.78531977   -1.11270066    0.00000000   2       6  N
   -1.34593381    0.97625025    0.00000000   3       7  Si
   -0.59943988   -1.09607717    0.00000000   3       8  Si
    0.45318289    2.35051023    0.00000000   3       9  Si
    2.13330203   -0.57651080    0.00000000   3      10  Si
   -3.51606566   -0.84205651    0.00000008   3      11  Si
    2.82452783    1.75472311    0.00000000   4      12  H
   -4.87755169   -1.46921466    0.00000000   4      13  H
    3.99495202   -2.14320400    0.00000000   4      14  H
    4.62090361   -0.48366606    0.00000000   4      15  H
   -2.27908518   -3.08151409    0.00000000   4      16  H
    4.48364186    4.77413539   -0.00000000   3      17  Si
    6.35260135    6.03377902   -0.00000000   3      18  Si
    5.89366897    2.03239717   -0.00000000   3      19  Si
    7.96126169    4.53898839   -0.00000000   3      20  Si
    4.54317181    3.08918293   -0.00000000   2      21  N
    2.85364266    5.40419562   -0.00000000   2      22  N
    7.53755784    2.82348758   -0.00000000   2      23  N
    6.63296505    7.50400154   -0.00000000   4      24  H
    9.45667307    4.75784093   -0.00000000   4      25  H
    2.60918367    6.42266157   -0.00000000   4      26  H
    2.02690148    4.74734749   -0.00000000   4      27  H
    5.95294473    0.44995514   -0.00000000   1      28  O
    8.30921343    2.09652022   -0.00000000   4      29  H

siesta: Eigenvalues (eV):
ik =     1
  -22.9806  -22.9806  -22.7631  -22.7631  -21.3877  -21.3877  -21.3049  -21.3049  -20.9109  -20.9109
  -20.6122  -20.6122  -20.2038  -20.2038  -19.6642  -19.6642  -19.5423  -19.5423  -19.3791  -19.3791
  -14.7362  -14.7362  -13.8438  -13.8438  -13.2448  -13.2448  -13.1572  -13.1572  -12.9021  -12.9021
  -12.6801  -12.6801  -12.5758  -12.5758  -11.9888  -11.9888  -11.9140  -11.9140  -11.7415  -11.7415
  -11.0184  -11.0184  -10.7901  -10.7901  -10.6040  -10.6040  -10.3328  -10.3328  -10.1328  -10.1328
   -9.7053   -9.7053   -9.0444   -9.0444   -8.9702   -8.9702   -8.8816   -8.8816   -8.6592   -8.6592
   -8.4994   -8.4994   -8.4540   -8.4540   -8.3940   -8.3940   -7.9716   -7.9716   -7.9406   -7.9406
   -7.5533   -7.5533   -7.4287   -7.4287   -7.3769   -7.3769   -7.1857   -7.1857   -6.9480   -6.9480
   -6.7851   -6.7851   -6.6847   -6.6847   -6.5325   -6.5325   -6.4204   -6.4204   -6.1850   -6.1850
   -6.0461   -6.0461   -5.9739   -5.9739   -5.4875   -5.4875   -4.3821   -4.3821   -3.1992   -3.1992
   -2.4547   -2.4547   -2.2970   -2.2970   -2.2198   -2.2198   -1.9961   -1.9961   -1.8882   -1.8882
   -1.8432   -1.8432   -1.7119   -1.7119   -1.6560   -1.6560   -1.2731   -1.2731   -1.1393   -1.1393
   -1.1301   -1.1301   -0.5413   -0.5413   -0.4519   -0.4519   -0.4119   -0.4119    0.3459    0.3459
    0.3604    0.3604    0.5537    0.5537    0.7680    0.7680    0.8535    0.8535    1.2260    1.2260
    1.3611    1.3611    1.4422    1.4422    1.4642    1.4642    1.5359    1.5359    1.9753    1.9753
    2.2102    2.2102    2.5818    2.5818    2.6892    2.6892    2.7724    2.7724    2.9855    2.9855
    2.9937    2.9937    3.2100    3.2100    3.3467    3.3467    3.3653    3.3653    3.7566    3.7566
    3.7982    3.7982    4.0818    4.0818    4.1099    4.1099    4.1677    4.1677    4.3423    4.3423
    4.6024    4.6024    4.6187    4.6187    4.7339    4.7339    5.0871    5.0871    5.2849    5.2849
    5.2883    5.2883    5.5280    5.5280    5.5860    5.5860    5.6824    5.6824    5.8778    5.8778
    5.9854    5.9854    6.4089    6.4089    6.4542    6.4542    6.5810    6.5810    6.6683    6.6683
    6.7734    6.7734    6.9131    6.9131    7.0506    7.0506    7.1521    7.1521    7.2164    7.2164
    7.4732    7.4732    7.6236    7.6236    7.7865    7.7865    8.0442    8.0442    8.0686    8.0686
    8.1955    8.1955    8.4469    8.4469    8.6179    8.6179    8.6940    8.6940    8.7450    8.7450
    8.8142    8.8142    9.0807    9.0807    9.1418    9.1418    9.3702    9.3702    9.4302    9.4302
    9.6764    9.6764    9.8251    9.8251    9.8918    9.8918    9.9744    9.9744   10.1978   10.1978
   10.4760   10.4760   10.6662   10.6662   10.9101   10.9101   11.1899   11.1899   11.1989   11.1989
   11.4118   11.4118   11.6751   11.6751   12.3178   12.3178   12.4078   12.4078   12.4383   12.4383
   12.4553   12.4553   12.5868   12.5868   13.2716   13.2716   13.3296   13.3296   13.4024   13.4024
   13.7053   13.7053   13.7814   13.7814   14.0333   14.0333   14.1730   14.1730   14.2691   14.2691
   14.4511   14.4511   14.5858   14.5858   14.7432   14.7432   14.8803   14.8803   15.0299   15.0299
   15.5015   15.5015   16.3154   16.3154   16.6614   16.6614   16.7460   16.7460   16.7655   16.7655
   17.2968   17.2968   17.8584   17.8584   18.3049   18.3049   18.4715   18.4715   19.0007   19.0007
   19.7102   19.7102   20.1683   20.1683   20.2246   20.2246   20.6423   20.6423   21.0309   21.0309
   21.3572   21.3572   22.0014   22.0014   22.2203   22.2203   22.8281   22.8281   22.9367   22.9367
   23.6973   23.6973   23.8411   23.8411   24.1564   24.1564   24.6123   24.6123   25.0335   25.0335
   25.6801   25.6801   26.1862   26.1862   26.8228   26.8228   27.7970   27.7970   28.7128   28.7128
   29.2659   29.2659   29.8048   29.8048   30.0165   30.0165   30.2749   30.2749   30.6765   30.6765
   30.9020   30.9020   30.9494   30.9494   31.3005   31.3005   31.6845   31.6845   31.8944   31.8944
   32.7608   32.7608   33.6328   33.6328   33.9431   33.9431   33.9849   33.9849   34.2780   34.2780
   34.7472   34.7472   35.3768   35.3768   36.1354   36.1354   36.3221   36.3221   36.7272   36.7272
   37.0154   37.0154   37.1276   37.1276   37.1553   37.1553   37.4698   37.4698   38.4790   38.4790
   38.9316   38.9316   39.2404   39.2404   39.6214   39.6214   39.6877   39.6877   40.2535   40.2535
   40.4868   40.4868   40.8563   40.8563   41.8150   41.8150   41.8602   41.8602   42.0684   42.0684
   42.2446   42.2446   42.7830   42.7830   42.9474   42.9474   43.2354   43.2354   43.8024   43.8024
   44.2029   44.2029   44.3989   44.3989   44.6366   44.6366   44.8389   44.8389   45.1782   45.1782
   45.2891   45.2891   45.7696   45.7696   46.3414   46.3414   46.5341   46.5341   46.8003   46.8003
   47.1940   47.1940   47.8961   47.8961   48.9080   48.9080   49.5827   49.5827   49.7333   49.7333
   50.3461   50.3461   50.5830   50.5830   50.8028   50.8028   50.9462   50.9462   51.7479   51.7479
   51.8245   51.8245   52.5531   52.5531   52.6936   52.6936   54.4101   54.4101   54.4512   54.4512
   54.7784   54.7784   54.8884   54.8884   55.9333   55.9333   55.9610   55.9610   56.1920   56.1920
   56.2923   56.2923   57.3696   57.3696   58.2914   58.2914   58.4333   58.4333   59.6922   59.6922
   60.0518   60.0518   60.4063   60.4063   60.8054   60.8054   61.6259   61.6259   62.3092   62.3092
   62.5427   62.5427   63.3180   63.3180   64.2199   64.2199   64.4743   64.4743   66.3858   66.3858
   67.0815   67.0815   68.3663   68.3663   69.4632   69.4632   69.6418   69.6418   70.7411   70.7411
   71.7165   71.7165   71.9862   71.9862   75.2041   75.2041   75.7432   75.7432   88.1711   88.1711
   90.1787   90.1787   90.8151   90.8151   94.6819   94.6819   97.1274   97.1274   98.0355   98.0355
  101.7334  101.7334  103.0737  103.0737  103.6626  103.6626  104.4617  104.4617  107.6954  107.6954
  115.6856  115.6856  118.6358  118.6358  124.9652  124.9652  128.1486  128.1486  139.5400  139.5400
  149.9039  149.9039  150.1406  150.1406
siesta: Fermi energy =      -3.791770 eV

siesta: Program's energy decomposition (eV):
siesta: Ebs     =     -1135.843301
siesta: Eions   =      3585.165840
siesta: Ena     =       384.651563
siesta: Ekin    =      2916.637458
siesta: Enl     =     -2802.427345
siesta: Eso     =        -0.004315
siesta: Edftu   =         0.000000
siesta: DEna    =        48.441279
siesta: DUscf   =        13.782900
siesta: DUext   =         0.000000
siesta: Exc     =     -1123.720601
siesta: eta*DQ  =         0.000000
siesta: Emadel  =         0.000000
siesta: Emeta   =         0.000000
siesta: Emolmec =         0.000000
siesta: Ekinion =         0.000000
siesta: Eharris =     -4147.804901
siesta: Etot    =     -4147.804901
siesta: FreeEng =     -4147.804901

siesta: Final energy (eV):
siesta:  Band Struct. =   -1135.843301
siesta:       Kinetic =    2916.637458
siesta:       Hartree =    9085.801484
siesta:       Edftu   =       0.000000
siesta:       Eso     =      -0.004315
siesta:    Ext. field =       0.000000
siesta:   Exch.-corr. =   -1123.720601
siesta:  Ion-electron =  -20765.144849
siesta:       Ion-ion =    5738.625923
siesta:       Ekinion =       0.000000
siesta:         Total =   -4147.804901
siesta:         Fermi =      -3.791770

siesta: Atomic forces (eV/Ang):
siesta:      1    0.228764    0.464168   -0.000000
siesta:      2   -0.046717   -0.009899    0.000000
siesta:      3   -0.783649    0.356869   -0.000000
siesta:      4   -0.738864   -0.053925    0.000000
siesta:      5   -0.073722    0.115838    0.000000
siesta:      6   -1.617434   -0.617343   -0.000000
siesta:      7   -0.059002    0.252864   -0.000000
siesta:      8    0.435684   -0.239553   -0.000000
siesta:      9    0.232077   -1.261979    0.000000
siesta:     10    1.093096   -0.226319    0.000000
siesta:     11   -0.007896    0.045364   -0.000000
siesta:     12    0.349561    0.205851   -0.000000
siesta:     13    0.001004    0.094369    0.000000
siesta:     14   -0.202814   -0.025165    0.000000
siesta:     15    1.102850    0.765551    0.000000
siesta:     16    0.074987    0.127867    0.000000
siesta:     17   -1.123627    1.078029   -0.000000
siesta:     18    0.232308   -0.200660    0.000000
siesta:     19    0.236028    1.224340   -0.000000
siesta:     20   -0.004839    0.407760    0.000000
siesta:     21    0.336710   -1.086904    0.000000
siesta:     22    2.647700    1.106785    0.000000
siesta:     23   -0.261983   -0.561877   -0.000000
siesta:     24   -0.046370    0.066065    0.000000
siesta:     25   -0.060987   -0.048727    0.000000
siesta:     26    0.117794    0.229715    0.000000
siesta:     27   -1.184033   -0.963228   -0.000000
siesta:     28   -0.964263   -1.330081    0.000000
siesta:     29    0.077302    0.073518   -0.000000
siesta: ----------------------------------------
siesta:    Tot   -0.010335   -0.010707    0.000000

siesta: Stress tensor (static) (eV/Ang**3):
siesta:    -0.000577   -0.000892   -0.000000
siesta:    -0.000892   -0.000921   -0.000000
siesta:     0.000000   -0.000000   -0.000079

siesta: Cell volume =       4399.426511 Ang**3

siesta: Pressure (static):
siesta:                Solid            Molecule  Units
siesta:           0.00000573          0.00000378  Ry/Bohr**3
siesta:           0.00052565          0.00034739  eV/Ang**3
siesta:           0.84219574          0.55657887  kBar
(Free)E+ p_basis*V_orbitals  =       -4127.954483
(Free)Eharris+ p_basis*V_orbitals  =       -4127.954483
     spin moment: S , {S} =    0.00000   0.00000  -0.00000  -0.00000

siesta: Electric dipole (a.u.)  =    1.389544    0.073618    0.000000
siesta: Electric dipole (Debye) =    3.531872    0.187119    0.000000

cite: Please see "GC.bib" for an exhaustive BiBTeX file.
cite: Please clearly indicate Siesta version in published work: v4.1.5-1-g384057250
cite: This calculation has made use of the following articles
cite: which are encouraged to be cited in a published work.
        Primary SIESTA paper
          DOI: www.doi.org/10.1088/0953-8984/14/11/302
        Spin-orbit coupling (on-site approximation)
          DOI: www.doi.org/10.1088/0953-8984/19/19/489001

WARNING: alloc-realloc-dealloc name mismatch
         Name: atomlist isa
         Node:     0
         Subsequent mismatches will not be reported
>> End of run:  22-MAY-2023   4:23:38
Job completed