>> Start of run:  14-OCT-2023  13:27:59

reinit: Reading from standard input
reinit: Dumped input in INPUT_TMP.90547
************************** Dump of input data file ****************************
# mpirun -np 4 siesta-4.1.5 < Cytosine.fdf > Cytosine.out
SystemLabel      Cytosine
NumberOfAtoms    13
NumberOfSpecies  4
%block ChemicalSpeciesLabel
    1    1  H
    2    7  N
    3    14 Si
    4    8  O
%endblock ChemicalSpeciesLabel
# This overrides Defaults.fdf conf
MD.TypeOfRun                Verlet # CG, Verlet
MD.Steps                    300
MD.Quench                   True
AtomicCoordinatesFormat NotScaledCartesianAng
%block AtomicCoordinatesAndAtomicSpecies
0.781589 3.367805 0.000000 1
0.166424 2.514760 0.000000 2
-1.253920 2.596368 0.000000 3
-1.655664 3.620498 0.000000 1
-2.026004 1.457622 0.000000 3
-3.103053 1.554890 0.000000 1
-1.411338 0.161355 0.000000 3
-2.139543 -1.076382 0.000000 2
-1.590480 -2.054207 0.000000 1
-3.176690 -1.025405 0.000000 1
-0.000004 0.000028 0.000000 2
0.854180 1.185790 0.000000 3
2.065422 1.151352 0.000000 4
%endblock AtomicCoordinatesAndAtomicSpecies
# Unit Cell
LatticeConstant 1.0 Ang
%block LatticeVectors
    14.828907   0.000000    0.000000
    0.000000    14.495518   0.000000
    0.000000    0.000000    9.854683
%endblock LatticeVectors
%include ../../../../Defaults.fdf
************************** End of input data file *****************************

reinit: -----------------------------------------------------------------------
reinit: System Name:
reinit: -----------------------------------------------------------------------
reinit: System Label: Cytosine
reinit: -----------------------------------------------------------------------

initatom: Reading input for the pseudopotentials and atomic orbitals ----------
Species number:   1 Atomic number:    1 Label: H
Species number:   2 Atomic number:    7 Label: N
Species number:   3 Atomic number:   14 Label: Si
Species number:   4 Atomic number:    8 Label: O

Ground state valence configuration:   1s01
Reading pseudopotential information in formatted form from H.psf

Pseudopotential generated from a relativistic atomic calculation

Valence configuration for pseudopotential generation:
1s( 1.00) rc: 0.01
2p( 0.00) rc: 0.60
3d( 0.00) rc: 1.99
4f( 0.00) rc: 2.49
Ground state valence configuration:   2s02  2p03
Reading pseudopotential information in formatted form from N.psf

[...]

Valence configuration for pseudopotential generation:
3s( 2.00) rc: 1.67
3p( 2.00) rc: 2.04
3d( 0.00) rc: 2.89
4f( 0.00) rc: 2.49
Ground state valence configuration:   2s02  2p04
Reading pseudopotential information in formatted form from O.psf

Pseudopotential generated from a relativistic atomic calculation

Valence configuration for pseudopotential generation:
2s( 2.00) rc: 0.45
2p( 4.00) rc: 0.92
3d( 0.00) rc: 2.24
4f( 0.00) rc: 0.25
For H, standard SIESTA heuristics set lmxkb to 2
 (one more than the basis l, including polarization orbitals).
Use PS.lmax or PS.KBprojectors blocks to override.
For N, standard SIESTA heuristics set lmxkb to 3
 (one more than the basis l, including polarization orbitals).
Use PS.lmax or PS.KBprojectors blocks to override.
For Si, standard SIESTA heuristics set lmxkb to 3
 (one more than the basis l, including polarization orbitals).
Use PS.lmax or PS.KBprojectors blocks to override.
For O, standard SIESTA heuristics set lmxkb to 3
 (one more than the basis l, including polarization orbitals).
Use PS.lmax or PS.KBprojectors blocks to override.

<basis_specs>
H                    Z=   1    Mass=  1.0100        Charge= 0.17977+309
Lmxo=0 Lmxkb= 2    BasisType=split      Semic=F
L=0  Nsemic=0  Cnfigmx=1
          i=1  nzeta=2  polorb=1  (1s)
            splnorm:   0.62000
               vcte:    0.0000
               rinn:    0.0000
               qcoe:    0.0000
               qyuk:    0.0000
               qwid:   0.10000E-01
                rcs:    0.0000      0.0000
            lambdas:    1.0000      1.0000
L=0  Nkbl=1  erefs: 0.17977+309
L=1  Nkbl=1  erefs: 0.17977+309
L=2  Nkbl=1  erefs: 0.17977+309
</basis_specs>

atom: Called for H                     (Z =   1)

read_vps: Pseudopotential generation method:
read_vps: ATM4.2.7  Troullier-Martins
Valence charge for ps generation:    1.00000

xc_check: Exchange-correlation functional:
xc_check: GGA Perdew, Burke & Ernzerhof 1996
V l=0 = -2*Zval/r beyond r=  0.0098
V l=1 = -2*Zval/r beyond r=  0.5817
V l=2 = -2*Zval/r beyond r=  1.9372
All V_l potentials equal beyond r=  1.9372
This should be close to max(r_c) in ps generation
All pots = -2*Zval/r beyond r=  1.9372

VLOCAL1: 99.0% of the norm of Vloc inside     11.567 Ry
VLOCAL1: 99.9% of the norm of Vloc inside     26.362 Ry
atom: Maximum radius for 4*pi*r*r*local-pseudopot. charge    2.25106
atom: Maximum radius for r*vlocal+2*Zval:    1.91306
GHOST: No ghost state for L =  0
GHOST: No ghost state for L =  1
GHOST: No ghost state for L =  2

KBgen: Kleinman-Bylander projectors:
   l= 0   rc=  2.036604   el= -0.477180   Ekb= -6.081590   kbcos= -0.277285
   l= 1   rc=  2.195416   el=  0.001076   Ekb= -0.926943   kbcos= -0.034643
   l= 2   rc=  2.251056   el=  0.002010   Ekb= -0.130941   kbcos= -0.009788

KBgen: Total number of Kleinman-Bylander projectors:    9
atom: -------------------------------------------------------------------------

atom: SANKEY-TYPE ORBITALS:
atom: Selected multiple-zeta basis: split

SPLIT: Orbitals with angular momentum L= 0

SPLIT: Basis orbitals for state 1s

SPLIT: PAO cut-off radius determined from an
SPLIT: energy shift=  0.002000 Ry

   izeta = 1
                 lambda =    1.000000
                     rc =    6.518340
                 energy =   -0.475305
                kinetic =    0.912139
    potential(screened) =   -1.387444
       potential(ionic) =   -1.907295

   izeta = 2
                 rmatch =    2.141150
              splitnorm =    0.620000
                 energy =    0.566467
                kinetic =    3.772856
    potential(screened) =   -3.206389
       potential(ionic) =   -3.759093

POLgen: Perturbative polarization orbital with L=  1

POLgen: Polarization orbital for state 1s

   izeta = 1
                     rc =    6.518340
                 energy =    0.533861
                kinetic =    1.121086
    potential(screened) =   -0.587225
       potential(ionic) =   -1.053027
atom: Total number of Sankey-type orbitals:  5

atm_pop: Valence configuration (for local Pseudopot. screening):
 1s( 1.00)
Vna: chval, zval:    1.00000   1.00000

Vna:  Cut-off radius for the neutral-atom potential:   6.518340

atom: _________________________________________________________________________

<basis_specs>
N                    Z=   7    Mass=  14.010        Charge= 0.17977+309
Lmxo=1 Lmxkb= 3    BasisType=split      Semic=F
L=0  Nsemic=0  Cnfigmx=2
          i=1  nzeta=2  polorb=0  (2s)
            splnorm:   0.28000
               vcte:    0.0000
               rinn:    0.0000
               qcoe:    0.0000
               qyuk:    0.0000
               qwid:   0.10000E-01
                rcs:    0.0000      0.0000
            lambdas:    1.0000      1.0000
L=1  Nsemic=0  Cnfigmx=2
          i=1  nzeta=2  polorb=1  (2p)
            splnorm:   0.28000
               vcte:    0.0000
               rinn:    0.0000
               qcoe:    0.0000
               qyuk:    0.0000
               qwid:   0.10000E-01
                rcs:    0.0000      0.0000
            lambdas:    1.0000      1.0000
L=0  Nkbl=1  erefs: 0.17977+309
L=1  Nkbl=1  erefs: 0.17977+309
L=2  Nkbl=1  erefs: 0.17977+309
L=3  Nkbl=1  erefs: 0.17977+309
</basis_specs>

[...]

KBgen: Kleinman-Bylander projectors:
   l= 0   rc=  3.417763   el= -1.365098   Ekb= -4.433130   kbcos= -0.707855
   l= 1   rc=  3.375302   el= -0.521201   Ekb=-13.264039   kbcos= -0.535594
   l= 2   rc=  3.872880   el=  0.001991   Ekb= -0.641094   kbcos= -0.062456
   l= 3   rc=  3.970931   el=  0.003093   Ekb= -0.474517   kbcos= -0.018236

[...]

SPLIT: Basis orbitals for state 2p

[...]

POLgen: Polarization orbital for state 2p

[...]

atm_pop: Valence configuration (for local Pseudopot. screening):
 2s( 2.00)
 2p( 3.00)
Vna: chval, zval:    5.00000   5.00000

[...]

KBgen: Kleinman-Bylander projectors:
   l= 0   rc=  3.075247   el= -0.794092   Ekb=  5.879390   kbcos=  0.167461
   l= 1   rc=  3.153101   el= -0.300068   Ekb=  2.642817   kbcos=  0.058301
   l= 2   rc=  3.273594   el=  0.001958   Ekb= -1.185135   kbcos= -0.104411
   l= 3   rc=  3.232927   el=  0.003046   Ekb= -0.497174   kbcos= -0.015889

[...]

<basis_specs>
O                    Z=   8    Mass=  16.000        Charge= 0.17977+309
Lmxo=1 Lmxkb= 3    BasisType=split      Semic=F
L=0  Nsemic=0  Cnfigmx=2
          i=1  nzeta=2  polorb=0  (2s)
            splnorm:   0.28000
               vcte:    0.0000
               rinn:    0.0000
               qcoe:    0.0000
               qyuk:    0.0000
               qwid:   0.10000E-01
                rcs:    0.0000      0.0000
            lambdas:    1.0000      1.0000
L=1  Nsemic=0  Cnfigmx=2
          i=1  nzeta=2  polorb=1  (2p)
            splnorm:   0.28000
               vcte:    0.0000
               rinn:    0.0000
               qcoe:    0.0000
               qyuk:    0.0000
               qwid:   0.10000E-01
                rcs:    0.0000      0.0000
            lambdas:    1.0000      1.0000
L=0  Nkbl=1  erefs: 0.17977+309
L=1  Nkbl=1  erefs: 0.17977+309
L=2  Nkbl=1  erefs: 0.17977+309
L=3  Nkbl=1  erefs: 0.17977+309
</basis_specs>

atom: Called for O                     (Z =   8)

read_vps: Pseudopotential generation method:
read_vps: ATM4.2.7  Troullier-Martins
Valence charge for ps generation:    6.00000

xc_check: Exchange-correlation functional:
xc_check: GGA Perdew, Burke & Ernzerhof 1996
V l=0 = -2*Zval/r beyond r=  1.1000
V l=1 = -2*Zval/r beyond r=  1.1000
V l=2 = -2*Zval/r beyond r=  2.2154
V l=3 = -2*Zval/r beyond r=  1.1000
All V_l potentials equal beyond r=  2.2154
This should be close to max(r_c) in ps generation
All pots = -2*Zval/r beyond r=  2.2154

VLOCAL1: 99.0% of the norm of Vloc inside      8.845 Ry
VLOCAL1: 99.9% of the norm of Vloc inside     20.157 Ry
atom: Maximum radius for 4*pi*r*r*local-pseudopot. charge    2.67231
atom: Maximum radius for r*vlocal+2*Zval:    2.32897
GHOST: No ghost state for L =  0
GHOST: No ghost state for L =  1
GHOST: No ghost state for L =  2
GHOST: No ghost state for L =  3

KBgen: Kleinman-Bylander projectors:
   l= 0   rc=  2.243238   el= -1.759686   Ekb=**********   kbcos= -0.171774
   l= 1   rc=  2.328968   el= -0.663873   Ekb=-14.506792   kbcos= -0.519897
   l= 2   rc=  2.573941   el=  0.002031   Ekb= -1.137373   kbcos= -0.019581
   l= 3   rc=  2.606321   el=  0.003153   Ekb= -1.013546   kbcos= -0.003122

KBgen: Total number of Kleinman-Bylander projectors:   16
atom: -------------------------------------------------------------------------

atom: SANKEY-TYPE ORBITALS:
atom: Selected multiple-zeta basis: split

[...]

SPLIT: Basis orbitals for state 2s

[...]

SPLIT: Orbitals with angular momentum L= 1

SPLIT: Basis orbitals for state 2p

SPLIT: PAO cut-off radius determined from an
SPLIT: energy shift=  0.002000 Ry

   izeta = 1
[...]
outcell: Cell angles (23,13,12) (deg):     90.0000     90.0000     90.0000
outcell: Cell volume (Ang**3)        :   2118.2906
<dSpData1D:S at geom step 300
  <sparsity:sparsity for geom step 300
    nrows_g=129 nrows=5 sparsity=.0380 nnzs=632, refcount: 8>
  <dData1D:(new from dSpData1D) n=632, refcount: 1>
refcount: 1>
new_DM -- step:   300
Re-using DM from previous geometries...
Number of DMs in history: 3
  Estimated Rank of xi*xj matrix:            3
 matrix rank:            3
Singular values:
  1.7321      1.7320     0.18645E-04 0.74581E-06
 DM extrapolation coefficients:
1  -0.61637
2   0.41177
3   1.20460
New DM after history re-use:
<dSpData2D:SpM extrapolated using coords
  <sparsity:sparsity for geom step 300
    nrows_g=129 nrows=5 sparsity=.0380 nnzs=632, refcount: 12>
  <dData2D:(temp array for extrapolation) n=632 m=8, refcount: 1>
refcount: 1>
     spin moment: S , {S} =    0.00000  -0.00000  -0.00000   0.00000
No. of atoms with KB's overlaping orbs in proc 0. Max # of overlaps:       9     125
New grid distribution:   1
           1       1:   90    1:   21    1:    8
           2       1:   90    1:   21    9:   16
           3       1:   90    1:   21   17:   24
           4       1:   90    1:   21   25:   32
           5       1:   90    1:   21   33:   39
           6       1:   90    1:   21   40:   46
           7       1:   90    1:   21   47:   53
           8       1:   90    1:   21   54:   60
           9       1:   90   22:   41    1:    8
          10       1:   90   22:   41    9:   16
          11       1:   90   22:   41   17:   24
          12       1:   90   22:   41   25:   32
          13       1:   90   22:   41   33:   39
          14       1:   90   22:   41   40:   46
          15       1:   90   22:   41   47:   53
          16       1:   90   22:   41   54:   60
          17       1:   90   42:   61    1:    8
          18       1:   90   42:   61    9:   16
          19       1:   90   42:   61   17:   24
          20       1:   90   42:   61   25:   32
          21       1:   90   42:   61   33:   39
          22       1:   90   42:   61   40:   46
          23       1:   90   42:   61   47:   53
          24       1:   90   42:   61   54:   60
          25       1:   90   62:   81    1:    8
          26       1:   90   62:   81    9:   16
          27       1:   90   62:   81   17:   24
          28       1:   90   62:   81   25:   32
          29       1:   90   62:   81   33:   39
          30       1:   90   62:   81   40:   46
          31       1:   90   62:   81   47:   53
          32       1:   90   62:   81   54:   60

InitMesh: MESH =   180 x   162 x   120 =     3499200
InitMesh: (bp) =    90 x    81 x    60 =      437400
InitMesh: Mesh cutoff (required, used) =   340.000   345.195 Ry
ExtMesh (bp) on 0 =   202 x   125 x   120 =     3030000
New grid distribution:   2
           1      11:   72    1:    8    1:   20
           2      73:   82    9:   18    1:   22
           3       1:   11    9:   16   21:   60
           4      12:   72    1:    8   21:   60
           5      12:   72    9:   16   21:   60
           6      11:   72    9:   16    1:   20
           7      73:   82    9:   18   23:   60
           8      73:   81   71:   81    1:   20
           9      73:   81   19:   70    1:   20
          10       1:   14   17:   31    1:   20
          11      73:   82    1:    8    1:   22
          12      15:   72   17:   67   21:   60
          13      73:   81   19:   70   21:   60
          14      82:   90   19:   69    1:   20
          15       1:   11    1:    8   21:   60
          16       1:   10    9:   16    1:   20
          17      15:   72   17:   67    1:   20
          18       1:   14   32:   81    1:   20
          19      73:   82    1:    8   23:   60
          20       1:   10    1:    8    1:   20
          21       1:   14   32:   81   21:   60
          22       1:   14   17:   31   21:   60
          23      83:   90   10:   18   23:   60
          24      83:   90   10:   18    1:   22
          25      15:   72   68:   81    1:   20
          26      83:   90    1:    9   23:   60
          27      82:   90   70:   81    1:   20
          28      15:   72   68:   81   21:   60
          29      82:   90   19:   69   21:   60
          30      82:   90   70:   81   21:   60
          31      73:   81   71:   81   21:   60
          32      83:   90    1:    9    1:   22
New grid distribution:   3
           1      22:   62   11:   22    1:   26
           2      77:   90    1:   16   28:   60
           3      77:   90   17:   32    1:   27
           4      21:   62    1:   10   27:   60
           5      21:   62   11:   22   27:   60
           6      22:   62    1:   10    1:   26
           7       1:   20   11:   22   27:   60
           8      77:   90    1:   16    1:   27
           9      16:   62   23:   69    1:   23
          10      63:   77   33:   65    1:   25
          11      63:   76   16:   32    1:   27
          12      77:   90   17:   32   28:   60
          13      63:   77   33:   65   26:   60
          14      78:   90   33:   62    1:   25
          15      63:   76   16:   32   28:   60
          16       1:   21   12:   22    1:   26
          17       1:   15   23:   62    1:   23
          18      63:   76    1:   15   28:   60
          19       1:   21    1:   11    1:   26
          20      16:   62   23:   69   24:   60
          21       1:   15   23:   64   24:   60
          22      63:   77   66:   81   26:   60
          23       1:   20    1:   10   27:   60
          24      63:   77   66:   81    1:   25
          25      16:   62   70:   81    1:   23
          26       1:   15   63:   81    1:   23
          27      78:   90   63:   81    1:   25
          28      16:   62   70:   81   24:   60
          29      78:   90   33:   63   26:   60
          30       1:   15   65:   81   24:   60
          31      78:   90   64:   81   26:   60
          32      63:   76    1:   15    1:   27
Setting up quadratic distribution...
ExtMesh (bp) on 0 =   174 x   112 x   132 =     2572416
PhiOnMesh: Number of (b)points on node 0 =                 9920
PhiOnMesh: nlist on node 0 =               181939

        iscf     Eharris(eV)        E_KS(eV)     FreeEng(eV)     dDmax    Ef(eV) dHmax(eV)
   scf:    1    -1750.377668    -1750.375797    -1750.375797  0.000349 -4.396124  0.013080
     spin moment: S , {S} =    0.00000  -0.00000  -0.00000   0.00000
   scf:    2    -1750.375684    -1750.375765    -1750.375765  0.000706 -4.395033  0.030732
     spin moment: S , {S} =    0.00000  -0.00000  -0.00000   0.00000
   scf:    3    -1750.375809    -1750.375801    -1750.375801  0.000528 -4.395807  0.002773
     spin moment: S , {S} =    0.00000  -0.00000  -0.00000   0.00000
   scf:    4    -1750.375801    -1750.375801    -1750.375801  0.000019 -4.395789  0.000635
     spin moment: S , {S} =    0.00000  -0.00000  -0.00000   0.00000
   scf:    5    -1750.375801    -1750.375801    -1750.375801  0.000004 -4.395775  0.000118
     spin moment: S , {S} =    0.00000  -0.00000  -0.00000   0.00000
   scf:    6    -1750.375801    -1750.375801    -1750.375801  0.000002 -4.395778  0.000026
     spin moment: S , {S} =    0.00000  -0.00000  -0.00000   0.00000
   scf:    7    -1750.375801    -1750.375801    -1750.375801  0.000001 -4.395779  0.000015
     spin moment: S , {S} =    0.00000  -0.00000  -0.00000   0.00000
   scf:    8    -1750.375801    -1750.375801    -1750.375801  0.000000 -4.395780  0.000008
     spin moment: S , {S} =    0.00000  -0.00000  -0.00000   0.00000
   scf:    9    -1750.375801    -1750.375801    -1750.375801  0.000000 -4.395780  0.000002
     spin moment: S , {S} =    0.00000  -0.00000  -0.00000   0.00000
   scf:   10    -1750.375801    -1750.375801    -1750.375801  0.000000 -4.395781  0.000001
     spin moment: S , {S} =    0.00000  -0.00000  -0.00000   0.00000

SCF Convergence by DM+H criterion
max |DM_out - DM_in|         :     0.0000000951
max |H_out - H_in|      (eV) :     0.0000007343
SCF cycle converged after 10 iterations

Using DM_out to compute the final energy and forces
No. of atoms with KB's overlaping orbs in proc 0. Max # of overlaps:       9     125

siesta: E_KS(eV) =            -1750.3758
     spin moment: S , {S} =    0.00000  -0.00000  -0.00000   0.00000

siesta: Atomic forces (eV/Ang):
     1   -0.030218   -0.029418   -0.000706
     2    0.006874   -0.050988    0.007181
     3   -0.248043    0.004196   -0.013388
     4   -0.000923    0.002685   -0.000142
     5   -0.052617   -0.024161    0.077562
     6    0.001113    0.000113   -0.000843
     7   -0.037180   -0.037907   -0.004577
     8   -0.033929   -0.040523   -0.006518
     9    0.000815    0.005541   -0.000097
    10    0.000134   -0.009419   -0.000691
    11   -0.121683    0.021299   -0.000857
    12   -0.037681   -0.019765    0.002970
    13    0.000160    0.001309   -0.000434
   Tot   -0.553177   -0.177038    0.059459
   Max    0.248043
   Res    0.050245    sqrt( Sum f_i^2 / 3N )
   Max    0.248043    constrained

Stress tensor Voigt[x,y,z,yz,xz,xy] (kbar):       -2.08       -0.30       -0.16        0.00       -0.00        0.09
(Free)E + p*V (eV/cell)    -1749.2562
Target enthalpy (eV/cell)    -1750.3758

siesta: Stress tensor (static) (eV/Ang**3):
        -0.001296    0.000058   -0.000001
         0.000058   -0.000185    0.000000
        -0.000001    0.000000   -0.000098

siesta: Pressure (static):          0.84358209  kBar

siesta: Stress tensor (total) (eV/Ang**3):
        -0.001300    0.000058   -0.000000
         0.000058   -0.000186    0.000001
        -0.000000    0.000001   -0.000100

siesta: Pressure (total):          0.84685242  kBar

siesta: Temp_ion =       3.280 K

outcoor: Final (unrelaxed) atomic coordinates (Ang):
    1.07734600    3.50223892    0.00064292   1       1  H
    0.31947192    2.76322186    0.00530383   2       2  N
   -1.36896550    3.24829211   -0.01294099   3       3  Si
   -1.56514225    4.74213492   -0.00005062   1       4  H
   -2.88975231    1.67218581    0.04833514   3       5  Si
   -4.36828301    1.88013893   -0.00067695   1       6  H
   -1.68253237   -0.22232552   -0.00432998   3       7  Si
   -2.45591714   -1.79122426   -0.00626999   2       8  N
   -1.89470358   -2.68365996   -0.00004633   1       9  H
   -3.49890006   -1.92599771   -0.00332588   1      10  H
    0.00802617   -0.25713341    0.00300205   2      11  N
    1.06209498    1.09794507    0.00054554   3      12  Si
    2.63880718    1.16303814   -0.00000145   4      13  O

siesta: Eigenvalues (eV):
ik =     1
  -21.9817  -21.9817  -21.5742  -21.5742  -21.0644  -21.0644  -19.5296  -19.5296  -14.7127  -14.7127
  -13.3210  -13.3210  -12.8217  -12.8217  -12.4115  -12.4115  -11.9567  -11.9567  -10.7833  -10.7833
  -10.0849  -10.0849   -9.5205   -9.5205   -8.6297   -8.6297   -8.4106   -8.4106   -7.7419   -7.7419
   -7.5962   -7.5962   -6.7893   -6.7893   -6.5841   -6.5841   -6.1542   -6.1542   -5.8223   -5.8223
   -5.4072   -5.4072   -3.1959   -3.1959   -2.2120   -2.2120   -1.7575   -1.7575   -1.7272   -1.7272
   -1.5133   -1.5133   -0.9530   -0.9530   -0.1788   -0.1788    0.2333    0.2333    0.7789    0.7789
    1.1691    1.1691    1.4092    1.4092    1.4903    1.4903    1.9128    1.9128    2.1458    2.1458
    2.9335    2.9335    3.0564    3.0564    3.4276    3.4276    4.1534    4.1534    4.5419    4.5419
    4.5678    4.5678    4.6944    4.6944    4.8884    4.8884    5.6441    5.6441    5.8260    5.8260
    5.9427    5.9427    6.2750    6.2750    6.6136    6.6136    6.8662    6.8662    7.1382    7.1382
    7.8203    7.8203    8.0736    8.0736    8.1687    8.1687    8.3060    8.3060    9.0859    9.0859
    9.2838    9.2838    9.7764    9.7764    9.8907    9.8907   10.2601   10.2601   10.8693   10.8693
   11.1228   11.1228   11.8486   11.8486   11.9505   11.9505   12.7989   12.7989   12.8853   12.8853
   13.6251   13.6251   14.0851   14.0851   14.2922   14.2922   15.0947   15.0947   15.6078   15.6078
   16.7606   16.7606   17.4949   17.4949   17.9674   17.9674   19.4233   19.4233   20.3181   20.3181
   21.0843   21.0843   21.5923   21.5923   22.1638   22.1638   23.1896   23.1896   23.9582   23.9582
   24.6310   24.6310   26.4524   26.4524   28.8553   28.8553   29.3644   29.3644   30.1876   30.1876
   31.0351   31.0351   31.1477   31.1477   31.5233   31.5233   31.7193   31.7193   32.9457   32.9457
   34.6458   34.6458   35.0665   35.0665   35.2570   35.2570   36.1336   36.1336   37.1636   37.1636
   37.9795   37.9795   39.1110   39.1110   40.1578   40.1578   40.8617   40.8617   41.0237   41.0237
   42.3388   42.3388   43.6121   43.6121   44.0220   44.0220   44.2185   44.2185   44.9864   44.9864
   46.1872   46.1872   49.0541   49.0541   50.8029   50.8029   51.2516   51.2516   51.9843   51.9843
   52.9768   52.9768   55.3229   55.3229   55.5598   55.5598   55.6132   55.6132   56.6132   56.6132
   56.6687   56.6687   59.1328   59.1328   60.5247   60.5247   61.8681   61.8681   61.9782   61.9782
   66.4397   66.4397   69.5060   69.5060   79.3645   79.3645   91.9920   91.9920   99.4955   99.4955
  101.1945  101.1945  111.0335  111.0335  126.5106  126.5106  139.7742  139.7742
siesta: Fermi energy =      -4.395781 eV

siesta: Program's energy decomposition (eV):
siesta: Ebs     =      -485.795001
siesta: Eions   =      1544.210757
siesta: Ena     =       161.789459
siesta: Ekin    =      1229.458157
siesta: Enl     =     -1144.121987
siesta: Eso     =        -0.001887
siesta: Edftu   =         0.000000
siesta: DEna    =        16.587091
siesta: DUscf   =         6.387662
siesta: DUext   =         0.000000
siesta: Exc     =      -476.263541
siesta: eta*DQ  =         0.000000
siesta: Emadel  =         0.000000
siesta: Emeta   =         0.000000
siesta: Emolmec =         0.000000
siesta: Ekinion =         0.005087
siesta: Eharris =     -1750.370714
siesta: Etot    =     -1750.370714
siesta: FreeEng =     -1750.370714

siesta: Final energy (eV):
siesta:  Band Struct. =    -485.795001
siesta:       Kinetic =    1229.458157
siesta:       Hartree =    2669.077094
siesta:       Edftu   =       0.000000
siesta:       Eso     =      -0.001887
siesta:    Ext. field =       0.000000
siesta:   Exch.-corr. =    -476.263541
siesta:  Ion-electron =   -6435.313864
siesta:       Ion-ion =    1262.668239
siesta:       Ekinion =       0.005087
siesta:         Total =   -1750.370714
siesta:         Fermi =      -4.395781

siesta: Atomic forces (eV/Ang):
siesta:      1   -0.030218   -0.029418   -0.000706
siesta:      2    0.006874   -0.050988    0.007181
siesta:      3   -0.248043    0.004196   -0.013388
siesta:      4   -0.000923    0.002685   -0.000142
siesta:      5   -0.052617   -0.024161    0.077562
siesta:      6    0.001113    0.000113   -0.000843
siesta:      7   -0.037180   -0.037907   -0.004577
siesta:      8   -0.033929   -0.040523   -0.006518
siesta:      9    0.000815    0.005541   -0.000097
siesta:     10    0.000134   -0.009419   -0.000691
siesta:     11   -0.121683    0.021299   -0.000857
siesta:     12   -0.037681   -0.019765    0.002970
siesta:     13    0.000160    0.001309   -0.000434
siesta: ----------------------------------------
siesta:    Tot   -0.553177   -0.177038    0.059459

siesta: Stress tensor (static) (eV/Ang**3):
siesta:    -0.001296    0.000058   -0.000001
siesta:     0.000058   -0.000185    0.000000
siesta:    -0.000001    0.000000   -0.000098

siesta: Cell volume =       2118.290604 Ang**3

siesta: Pressure (static):
siesta:                Solid            Molecule  Units
siesta:           0.00000573          0.00000587  Ry/Bohr**3
siesta:           0.00052652          0.00053856  eV/Ang**3
siesta:           0.84358209          0.86287891  kBar
(Free)E+ p_basis*V_orbitals  =       -1741.515059
(Free)Eharris+ p_basis*V_orbitals  =       -1741.515059
     spin moment: S , {S} =    0.00000  -0.00000  -0.00000   0.00000

siesta: Electric dipole (a.u.)  =   -3.072260    0.324537   -0.013861
siesta: Electric dipole (Debye) =   -7.808911    0.824892   -0.035231

cite: Please see "Cytosine.bib" for an exhaustive BiBTeX file.
cite: Please clearly indicate Siesta version in published work: v4.1.5-1-g384057250
cite: This calculation has made use of the following articles
cite: which are encouraged to be cited in a published work.
        Primary SIESTA paper
          DOI: www.doi.org/10.1088/0953-8984/14/11/302
        Spin-orbit coupling (on-site approximation)
          DOI: www.doi.org/10.1088/0953-8984/19/19/489001

WARNING: alloc-realloc-dealloc name mismatch
         Name: atomlist isa
         Node:     0
         Subsequent mismatches will not be reported
>> End of run:  14-OCT-2023  14:16:09
Job completed