>> Start of run:  17-OCT-2023  20:11:51

reinit: Reading from standard input
reinit: Dumped input in INPUT_TMP.40008
************************** Dump of input data file ****************************
SystemLabel      desoxy1-3
NumberOfAtoms    56
NumberOfSpecies  4
%block ChemicalSpeciesLabel
    1    8  O
    2   14  Si
    3    1  H
    4   15  P
%endblock ChemicalSpeciesLabel
# This overrides Defaults.fdf configuration
MD.TypeOfRun                Verlet # CG, Verlet
MD.Steps                    600
MD.Quench                   True
MD.InitialTemperature       1 K
SCF.H.Tolerance             0.00006 eV
SCF.DM.Tolerance            0.00008
MaxSCFIterations            300
AtomicCoordinatesFormat NotScaledCartesianAng
%block AtomicCoordinatesAndAtomicSpecies
   -5.90856572   17.91827385    1.82120302   1       1  O
   -4.87240161   17.34900173    3.15653033   2       2  Si
   -5.72667318   16.42939887    3.98696974   3       3  H
   -4.38566732   18.52801496    3.98419788   3       4  H
   -2.81906990   16.30333362    2.48625811   2       5  Si
   -1.96835224   16.43138082    3.72664902   3       6  H
   -2.77560724   14.59849669    2.07769094   1       7  O
   -3.20269721   14.03785990    0.46227149   2       8  Si
   -2.14791671   13.02266215    0.08629511   3       9  H
   -4.56305323   13.37203546    0.52033736   3      10  H
   -2.09247310   17.45733148    0.55712091   2      11  Si
   -2.59553564   18.87974055    0.51958716   3      12  H
   -3.24224272   15.98624716   -0.89944615   2      13  Si
   -4.65323660   16.51810718   -1.04019708   3      14  H
   -2.59477157   15.81899174   -2.25347965   3      15  H
   -0.35898908   17.39279630    0.43184880   1      16  O
    0.00584120   17.66509728   -0.44890927   3      17  H
   -7.42787939   18.70232232    3.81508223   1      18  O
   -7.11724985   19.10413484    2.19521609   4      19  P
   -6.26815817   20.44768303    2.07901977   1      20  O
   -8.58203996   18.96587145    1.55924170   1      21  O
  -12.61738181   16.42941045    4.85118198   1      22  O
  -12.02939367   17.15438409    6.42705625   2      23  Si
  -12.25856929   16.08011677    7.45224108   3      24  H
  -12.78297368   18.41903723    6.75470531   3      25  H
   -9.66021290   17.37496470    6.39827738   2      26  Si
   -9.21698142   18.26777777    7.53762851   3      27  H
   -9.30384181   15.73286466    6.92638441   1      28  O
   -8.71733762   14.58125562    5.72112761   2      29  Si
   -7.24768932   14.33336083    5.97846947   3      30  H
   -9.48487348   13.28574326    5.89186986   3      31  H
   -8.99476884   17.90662420    4.10211775   2      32  Si
  -10.11308309   18.79098424    3.63898215   3      33  H
   -9.03197232   15.58008643    3.58122968   2      34  Si
  -10.38190371   15.20777862    3.03148972   3      35  H
   -7.96096348   15.20667100    2.59733970   3      36  H
  -14.67927750   16.51665330    6.15720254   1      37  O
  -14.34062234   16.96081038    4.60777955   4      38  P
  -13.51325590   18.27205686    4.24457698   1      39  O
  -15.65417266   16.77787772    3.81047387   1      40  O
  -18.52201717   12.14959248    6.58651226   1      41  O
  -18.13045885   12.75903036    8.18306911   2      42  Si
  -18.25273232   11.62449798    9.18399704   3      43  H
  -19.14942465   13.81035442    8.57748801   3      44  H
  -16.03763778   13.97360904    8.43734659   2      45  Si
  -16.28543183   14.77036621    9.70322418   3      46  H
  -14.58798747   13.02408889    8.74713287   1      47  O
  -13.70514199   12.33214133    7.39131399   2      48  Si
  -12.25733279   12.67365970    7.62342686   3      49  H
  -13.86966599   10.83612125    7.45084702   3      50  H
  -15.81391170   15.08246941    6.33029877   2      51  Si
  -17.17858501   15.46971937    5.80480105   3      52  H
  -14.64311899   13.24425685    5.39862787   2      53  Si
  -13.60018220   13.72152791    4.41769149   3      54  H
  -15.57007237   12.23587089    4.76452296   3      55  H
  -19.44400299   11.79121299    6.51255947   3      56  H
%endblock AtomicCoordinatesAndAtomicSpecies
# Unit Cell
LatticeConstant 1.0 Ang
%block LatticeVectors
    28.991692    0.000000    0.000000
    0.000000   17.480056    0.000000
    0.000000    0.000000   20.793004
%endblock LatticeVectors
%include ../../Defaults.fdf
************************** End of input data file *****************************

reinit: -----------------------------------------------------------------------
reinit: System Name:
reinit: -----------------------------------------------------------------------
reinit: System Label: desoxy1-3
reinit: -----------------------------------------------------------------------

initatom: Reading input for the pseudopotentials and atomic orbitals ----------
Species number:   1 Atomic number:    8 Label: O
Species number:   2 Atomic number:   14 Label: Si
Species number:   3 Atomic number:    1 Label: H
Species number:   4 Atomic number:   15 Label: P

Ground state valence configuration:   2s02  2p04
Reading pseudopotential information in formatted form from O.psf

Pseudopotential generated from a relativistic atomic calculation

Valence configuration for pseudopotential generation:
2s( 2.00) rc: 0.45
2p( 4.00) rc: 0.92
3d( 0.00) rc: 2.24
4f( 0.00) rc: 0.25
Ground state valence configuration:   3s02  3p02
Reading pseudopotential information in formatted form from Si.psf

[...]

Valence configuration for pseudopotential generation:
3s( 2.00) rc: 1.67
3p( 2.00) rc: 2.04
3d( 0.00) rc: 2.89
4f( 0.00) rc: 2.49
Ground state valence configuration:   1s01
Reading pseudopotential information in formatted form from H.psf

[...]

Valence configuration for pseudopotential generation:
1s( 1.00) rc: 0.01
2p( 0.00) rc: 0.60
3d( 0.00) rc: 1.99
4f( 0.00) rc: 2.49
Ground state valence configuration:   3s02  3p03
Reading pseudopotential information in formatted form from P.psf

Pseudopotential generated from a relativistic atomic calculation

Valence configuration for pseudopotential generation:
3s( 2.00) rc: 1.48
3p( 3.00) rc: 1.78
3d( 0.00) rc: 2.24
4f( 0.00) rc: 0.25
For O, standard SIESTA heuristics set lmxkb to 3
 (one more than the basis l, including polarization orbitals).
Use PS.lmax or PS.KBprojectors blocks to override.
For Si, standard SIESTA heuristics set lmxkb to 3
 (one more than the basis l, including polarization orbitals).
Use PS.lmax or PS.KBprojectors blocks to override.
For H, standard SIESTA heuristics set lmxkb to 2
 (one more than the basis l, including polarization orbitals).
Use PS.lmax or PS.KBprojectors blocks to override.
For P, standard SIESTA heuristics set lmxkb to 3
 (one more than the basis l, including polarization orbitals).
Use PS.lmax or PS.KBprojectors blocks to override.

<basis_specs>
O                    Z=   8    Mass=  16.000        Charge= 0.17977+309
Lmxo=1 Lmxkb= 3    BasisType=split      Semic=F
L=0  Nsemic=0  Cnfigmx=2
          i=1  nzeta=2  polorb=0  (2s)
            splnorm:   0.28000
               vcte:    0.0000
               rinn:    0.0000
               qcoe:    0.0000
               qyuk:    0.0000
               qwid:   0.10000E-01
                rcs:    0.0000      0.0000
            lambdas:    1.0000      1.0000
L=1  Nsemic=0  Cnfigmx=2
          i=1  nzeta=2  polorb=1  (2p)
            splnorm:   0.28000
               vcte:    0.0000
               rinn:    0.0000
               qcoe:    0.0000
               qyuk:    0.0000
               qwid:   0.10000E-01
                rcs:    0.0000      0.0000
            lambdas:    1.0000      1.0000
L=0  Nkbl=1  erefs: 0.17977+309
L=1  Nkbl=1  erefs: 0.17977+309
L=2  Nkbl=1  erefs: 0.17977+309
L=3  Nkbl=1  erefs: 0.17977+309
</basis_specs>

atom: Called for O                     (Z =   8)

read_vps: Pseudopotential generation method:
read_vps: ATM4.2.7  Troullier-Martins
Valence charge for ps generation:    6.00000

xc_check: Exchange-correlation functional:
xc_check: GGA Perdew, Burke & Ernzerhof 1996
V l=0 = -2*Zval/r beyond r=  1.1000
V l=1 = -2*Zval/r beyond r=  1.1000
V l=2 = -2*Zval/r beyond r=  2.2154
V l=3 = -2*Zval/r beyond r=  1.1000
All V_l potentials equal beyond r=  2.2154
This should be close to max(r_c) in ps generation
All pots = -2*Zval/r beyond r=  2.2154

VLOCAL1: 99.0% of the norm of Vloc inside      8.845 Ry
VLOCAL1: 99.9% of the norm of Vloc inside     20.157 Ry
atom: Maximum radius for 4*pi*r*r*local-pseudopot. charge    2.67231
atom: Maximum radius for r*vlocal+2*Zval:    2.32897
GHOST: No ghost state for L =  0
GHOST: No ghost state for L =  1
GHOST: No ghost state for L =  2
GHOST: No ghost state for L =  3

KBgen: Kleinman-Bylander projectors:
   l= 0   rc=  2.243238   el= -1.759686   Ekb=**********   kbcos= -0.171774
   l= 1   rc=  2.328968   el= -0.663873   Ekb=-14.506792   kbcos= -0.519897
   l= 2   rc=  2.573941   el=  0.002031   Ekb= -1.137373   kbcos= -0.019581
   l= 3   rc=  2.606321   el=  0.003153   Ekb= -1.013546   kbcos= -0.003122

KBgen: Total number of Kleinman-Bylander projectors:   16
atom: -------------------------------------------------------------------------

atom: SANKEY-TYPE ORBITALS:
atom: Selected multiple-zeta basis: split

SPLIT: Orbitals with angular momentum L= 0

SPLIT: Basis orbitals for state 2s

SPLIT: PAO cut-off radius determined from an
SPLIT: energy shift=  0.002000 Ry

   izeta = 1
                 lambda =    1.000000
                     rc =    4.243912
                 energy =   -1.758270
                kinetic =    3.286084
    potential(screened) =   -5.044353
       potential(ionic) =  -12.921184

   izeta = 2
                 rmatch =    2.187845
              splitnorm =    0.280000
                 energy =   -0.885018
                kinetic =    8.134434
    potential(screened) =   -9.019452
       potential(ionic) =  -17.710645

[...]

SPLIT: Basis orbitals for state 2p

[...]

POLgen: Perturbative polarization orbital with L=  2

POLgen: Polarization orbital for state 2p

   izeta = 1
                     rc =    5.314825
                 energy =    1.970580
                kinetic =    3.886128
    potential(screened) =   -1.915547
       potential(ionic) =   -7.749584
atom: Total number of Sankey-type orbitals: 13

atm_pop: Valence configuration (for local Pseudopot. screening):
 2s( 2.00)
 2p( 4.00)
Vna: chval, zval:    6.00000   6.00000

Vna:  Cut-off radius for the neutral-atom potential:   5.314825

atom: _________________________________________________________________________

[...]

KBgen: Kleinman-Bylander projectors:
   l= 0   rc=  3.075247   el= -0.794092   Ekb=  5.879390   kbcos=  0.167461
   l= 1   rc=  3.153101   el= -0.300068   Ekb=  2.642817   kbcos=  0.058301
   l= 2   rc=  3.273594   el=  0.001958   Ekb= -1.185135   kbcos= -0.104411
   l= 3   rc=  3.232927   el=  0.003046   Ekb= -0.497174   kbcos= -0.015889

[...]

<basis_specs>
H                    Z=   1    Mass=  1.0100        Charge= 0.17977+309
Lmxo=0 Lmxkb= 2    BasisType=split      Semic=F
L=0  Nsemic=0  Cnfigmx=1
          i=1  nzeta=2  polorb=1  (1s)
            splnorm:   0.62000
               vcte:    0.0000
               rinn:    0.0000
               qcoe:    0.0000
               qyuk:    0.0000
               qwid:   0.10000E-01
[...]
     2   -0.001380   -0.001425   -0.001506
     3   -0.000004   -0.000041    0.000007
     4   -0.000059   -0.000182   -0.000098
     5    0.000906   -0.002371    0.001992
     6    0.000082   -0.000007    0.000168
     7    0.000183   -0.000400    0.000429
     8    0.000714   -0.000016    0.001754
     9   -0.000031    0.000028    0.000027
    10   -0.000043   -0.000029    0.000062
    11   -0.000003   -0.000925   -0.000092
    12    0.000010   -0.000034    0.000007
    13    0.000544    0.000363    0.000011
    14    0.000007    0.000002   -0.000002
    15    0.000014   -0.000004   -0.000018
    16    0.000069   -0.000061    0.000154
    17    0.000011   -0.000024   -0.000023
    18   -0.000166    0.000006   -0.000012
    19   -0.000009    0.001008    0.000559
    20    0.000072    0.000134   -0.000002
    21   -0.000048   -0.000131   -0.000015
    22   -0.000126    0.000080    0.000002
    23   -0.004789    0.002849    0.000773
    24   -0.000002    0.000185   -0.000010
    25   -0.000280    0.000377   -0.000080
    26   -0.001243    0.000763    0.000808
    27    0.000043    0.000078    0.000108
    28   -0.000061   -0.000615   -0.000253
    29   -0.001090   -0.004992    0.000295
    30    0.000102   -0.000002    0.000014
    31   -0.000165   -0.000290    0.000093
    32   -0.001737    0.001598   -0.002085
    33   -0.000229    0.000175   -0.000059
    34   -0.000452    0.000086    0.000703
    35   -0.000033   -0.000006   -0.000005
    36   -0.000021    0.000035    0.000012
    37    0.000019    0.000097   -0.000063
    38    0.000084   -0.000317   -0.000753
    39   -0.000145   -0.000047   -0.000035
    40    0.000066   -0.000076   -0.000130
    41    0.000064   -0.000100   -0.000630
    42   -0.000451   -0.000164   -0.001172
    43    0.000009   -0.000012   -0.000015
    44    0.000004   -0.000030   -0.000015
    45   -0.001256    0.003128    0.000860
    46   -0.000047    0.000142    0.000219
    47   -0.000173    0.000207    0.000259
    48    0.000242    0.000703    0.001959
    49    0.000086    0.000026    0.000036
    50    0.000005    0.000044    0.000017
    51   -0.000198    0.000249    0.000081
    52   -0.000021    0.000014   -0.000004
    53   -0.000154    0.000506   -0.000322
    54    0.000022    0.000026   -0.000045
    55    0.000001    0.000005    0.000004
    56   -0.000013   -0.000075   -0.000189
   Tot   -0.011223    0.000760    0.003587
   Max    0.004992
   Res    0.000830    sqrt( Sum f_i^2 / 3N )
   Max    0.004992    constrained

Stress tensor Voigt[x,y,z,yz,xz,xy] (kbar):        0.45       -0.34       -0.86       -0.25        0.17        0.32
(Free)E + p*V (eV/cell)    -8040.3444
Target enthalpy (eV/cell)    -8041.9965

siesta: Stress tensor (static) (eV/Ang**3):
         0.000280    0.000197    0.000108
         0.000197   -0.000214   -0.000157
         0.000108   -0.000157   -0.000536

siesta: Pressure (static):          0.25119715  kBar

siesta: Stress tensor (total) (eV/Ang**3):
         0.000280    0.000197    0.000108
         0.000197   -0.000214   -0.000157
         0.000108   -0.000157   -0.000536

siesta: Pressure (total):          0.25119780  kBar

outcoor: Relaxed atomic coordinates (Ang):
   -5.90855435   17.91826666    1.82121992   1       1  O
   -4.87248024   17.34917020    3.15645971   2       2  Si
   -5.72665183   16.42943887    3.98693354   3       3  H
   -4.38567426   18.52800904    3.98418672   3       4  H
   -2.81903738   16.30323036    2.48609654   2       5  Si
   -1.96837734   16.43137246    3.72660478   3       6  H
   -2.77561800   14.59850185    2.07765394   1       7  O
   -3.20267677   14.03790806    0.46239396   2       8  Si
   -2.14793630   13.02268361    0.08630520   3       9  H
   -4.56302770   13.37204855    0.52034032   3      10  H
   -2.09220936   17.45741561    0.55709933   2      11  Si
   -2.59551808   18.87971498    0.51958990   3      12  H
   -3.24224479   15.98631149   -0.89944665   2      13  Si
   -4.65321720   16.51810220   -1.04019443   3      14  H
   -2.59478306   15.81899364   -2.25345597   3      15  H
   -0.35900283   17.39280309    0.43183374   1      16  O
    0.00588539   17.66510339   -0.44888280   3      17  H
   -7.42789422   18.70231477    3.81507256   1      18  O
   -7.11722183   19.10417015    2.19507579   4      19  P
   -6.26814516   20.44769752    2.07901702   1      20  O
   -8.58205315   18.96587173    1.55924611   1      21  O
  -12.61738204   16.42943294    4.85117559   1      22  O
  -12.02958148   17.15455326    6.42702437   2      23  Si
  -12.25857217   16.08016892    7.45220305   3      24  H
  -12.78316581   18.41949747    6.75480471   3      25  H
   -9.66016594   17.37467228    6.39838303   2      26  Si
   -9.21698719   18.26774579    7.53760503   3      27  H
   -9.30383563   15.73286556    6.92637081   1      28  O
   -8.71735548   14.58159861    5.72112767   2      29  Si
   -7.24773010   14.33336896    5.97846373   3      30  H
   -9.48484476   13.28580130    5.89186863   3      31  H
   -8.99444449   17.90669104    4.10205628   2      32  Si
  -10.11307937   18.79096293    3.63901642   3      33  H
   -9.03189513   15.58004547    3.58101153   2      34  Si
  -10.38187547   15.20778204    3.03149567   3      35  H
   -7.96091999   15.20664650    2.59731242   3      36  H
  -14.67926405   16.51666699    6.15722598   1      37  O
  -14.34059836   16.96076662    4.60776458   4      38  P
  -13.51325192   18.27208082    4.24461487   1      39  O
  -15.65417299   16.77788012    3.81046645   1      40  O
  -18.52202936   12.14959533    6.58653609   1      41  O
  -18.13056992   12.75889874    8.18294841   2      42  Si
  -18.25273900   11.62450621    9.18398014   3      43  H
  -19.14940352   13.81032835    8.57747505   3      44  H
  -16.03748500   13.97325303    8.43739143   2      45  Si
  -16.28542116   14.77033195    9.70318389   3      46  H
  -14.58797028   13.02407903    8.74711624   1      47  O
  -13.70522447   12.33216396    7.39141658   2      48  Si
  -12.25737634   12.67365053    7.62342884   3      49  H
  -13.86966632   10.83615288    7.45085022   3      50  H
  -15.81385353   15.08249348    6.33029752   2      51  Si
  -17.17854713   15.46971188    5.80481381   3      52  H
  -14.64312437   13.24424512    5.39859916   2      53  Si
  -13.60019659   13.72151777    4.41770839   3      54  H
  -15.57005954   12.23588327    4.76453188   3      55  H
  -19.44399359   11.79122194    6.51252920   3      56  H

siesta: Eigenvalues (eV):
ik =     1
  -27.4466  -27.1267  -26.4184  -26.3067  -25.6871  -25.3485  -25.0678  -25.0624  -24.9156  -24.9066
  -24.9066  -24.7849  -24.7082  -24.6560  -24.5444  -24.5161  -24.4481  -24.4332  -24.3959  -24.3948
  -24.2689  -24.2029  -23.9674  -23.8731  -23.6974  -23.4798  -15.6934  -15.6107  -15.4332  -15.3772
  -15.0558  -15.0224  -14.9249  -14.8906  -14.6909  -14.6687  -14.6109  -14.5953  -14.5463  -14.5276
  -14.4334  -14.4007  -14.0366  -14.0090  -13.7550  -13.7344  -13.5548  -13.5253  -13.1503  -13.1421
  -12.6905  -12.6040  -12.5553  -12.5250  -12.4082  -12.3933  -12.2723  -12.2128  -12.1535  -12.0411
  -12.0244  -11.9574  -11.7656  -11.7397  -11.7324  -11.7076  -11.7055  -11.5237  -11.4922  -11.4824
  -11.4198  -11.2610  -11.2304  -11.0873  -10.9203  -10.8679  -10.7610  -10.4676  -10.3937  -10.3320
  -10.2787  -10.2326  -10.2276  -10.2268  -10.2026  -10.1944  -10.1581  -10.1503  -10.1233  -10.0784
  -10.0582   -9.9654   -9.9609   -9.9167   -9.9162   -9.8268   -9.7831   -9.7589   -9.6817   -9.5945
   -9.5497   -9.5052   -9.5037   -9.4439   -9.4069   -9.3454   -9.3352   -9.2612   -9.2357   -9.1869
   -9.1792   -9.1170   -9.0472   -8.9770   -8.9596   -8.9482   -8.9397   -8.9301   -8.9033   -8.8562
   -8.8533   -8.8067   -8.7747   -8.7543   -8.6512   -8.6395   -8.5405   -8.5152   -8.4095   -8.3571
   -8.3509   -8.3253   -8.2504   -8.2494   -8.2011   -8.1910   -8.1664   -8.1459   -8.1340   -8.0726
   -8.0408   -7.8285   -7.7993   -7.7433   -7.7349   -7.7179   -7.6962   -7.6843   -7.6716   -7.6578
   -7.6150   -7.6080   -7.5876   -7.5239   -7.4353   -7.4351   -7.4166   -7.4104   -7.4030   -7.3132
   -7.1480   -7.1357   -7.1257   -7.0533   -7.0397   -7.0117   -7.0097   -6.8772   -6.7051   -6.6457
   -6.6163   -6.5971   -6.5546   -6.5166   -6.4025   -5.9530   -3.3079   -3.2566   -2.8979   -2.8829
   -2.7500   -2.7147   -2.5743   -2.5563   -2.4064   -2.3926   -2.3487   -2.3310   -2.2322   -2.2154
   -1.9148   -1.8917   -1.6978   -1.6841   -1.6507   -1.6244   -1.5171   -1.4949   -1.4933   -1.4797
   -1.4780   -1.4365   -1.1922   -1.1666   -1.1011   -1.0782   -1.0665   -1.0519   -0.9885   -0.9755
   -0.8061   -0.7694   -0.6984   -0.6870   -0.5281   -0.5152   -0.3917   -0.3815   -0.3773   -0.3654
   -0.2123   -0.1814   -0.1344   -0.1082   -0.1028   -0.0840    0.0163    0.0427    0.0679    0.0851
    0.0863    0.1367    0.1625    0.1927    0.3136    0.3360    0.3419    0.3563    0.3654    0.3921
    0.4503    0.4598    0.5273    0.5382    0.5619    0.5706    0.6539    0.6690    0.7900    0.8129
    0.8425    0.8525    0.9093    0.9205    1.0333    1.0407    1.1284    1.1449    1.1687    1.1826
    1.2873    1.2998    1.3014    1.3117    1.3316    1.3397    1.4110    1.4600    1.4873    1.5067
    1.5176    1.5370    1.5813    1.5948    1.6650    1.7285    1.7751    1.7959    1.9352    1.9678
    2.0135    2.0269    2.1194    2.1511    2.3731    2.3882    2.3968    2.4098    2.5778    2.5941
    2.6987    2.7501    2.7532    2.7681    2.8740    2.9181    2.9961    3.0029    3.1162    3.1373
    3.2336    3.2966    3.3561    3.3809    3.4006    3.4222    3.4663    3.4793    3.5005    3.5490
    3.5978    3.6334    3.6421    3.6640    3.7254    3.7489    3.8560    3.8703    3.9685    3.9938
    4.2077    4.2208    4.3453    4.3735    4.5230    4.5382    4.5800    4.5927    4.6529    4.6587
    4.7267    4.7391    4.7537    4.7602    4.8679    4.8746    5.1096    5.1304    5.1616    5.1762
    5.2121    5.2191    5.2557    5.2648    5.3907    5.4001    5.4810    5.4891    5.4991    5.5076
    5.5712    5.5849    5.7409    5.7473    5.7968    5.8100    5.9002    5.9141    6.0616    6.0808
    6.1014    6.1224    6.2288    6.2328    6.2599    6.2902    6.3205    6.3361    6.4158    6.4328
    6.6606    6.6680    6.7446    6.7498    6.7884    6.8066    6.8936    6.9043    6.9231    6.9354
    6.9728    6.9843    7.1026    7.1272    7.2745    7.2888    7.4154    7.4256    7.5404    7.5581
    7.6626    7.6856    7.7916    7.8005    7.8520    7.8758    7.8985    7.9225    8.0258    8.0805
    8.1552    8.1813    8.4115    8.4349    8.5287    8.5482    8.5746    8.5930    8.7477    8.7636
    8.9029    8.9154    9.0085    9.0518    9.1208    9.1549    9.1569    9.1739    9.3282    9.3406
    9.3588    9.3789    9.4908    9.5017    9.5730    9.5902    9.6287    9.6452    9.7694    9.7768
    9.7916    9.8098    9.8804    9.8941    9.9353    9.9498   10.0250   10.0428   10.1646   10.1850
   10.3450   10.3511   10.5122   10.5379   10.5825   10.6071   10.6602   10.6817   10.7260   10.7391
   10.8577   10.8635   10.9131   10.9302   10.9498   11.0030   11.1063   11.1346   11.1873   11.2040
   11.2268   11.2528   11.3694   11.3896   11.4520   11.4602   11.5682   11.5964   11.6790   11.6902
   11.8429   11.8661   12.0035   12.0201   12.0690   12.0861   12.1662   12.1806   12.2732   12.2911
   12.3658   12.3900   12.4741   12.4944   12.5015   12.5203   12.6291   12.6676   12.9396   12.9539
   12.9643   12.9785   13.0765   13.0920   13.1575   13.1723   13.2882   13.3076   13.5284   13.5474
   13.6204   13.6419   13.7063   13.7195   13.9987   14.0109   14.0581   14.0723   14.2590   14.2708
   14.3138   14.3229   14.4530   14.4715   14.5469   14.5617   14.6480   14.6584   14.7560   14.7632
   14.7906   14.8058   14.8468   14.8660   14.9926   15.0143   15.0408   15.0676   15.1159   15.1383
   15.2210   15.2378   15.2974   15.3098   15.3273   15.3458   15.4061   15.4210   15.5465   15.5602
   15.6342   15.6476   15.6799   15.6915   15.7878   15.7988   15.9945   16.0092   16.0744   16.1114
   16.1686   16.2081   16.5292   16.5502   16.5630   16.5852   16.5972   16.6108   16.7033   16.7126
   16.8875   16.9153   17.0430   17.0527   17.1357   17.1565   17.1650   17.1888   17.3263   17.3478
   17.3551   17.3736   17.4324   17.4479   17.5804   17.5937   17.8310   17.8550   18.0572   18.0789
   18.1304   18.1420   18.2804   18.3029   18.4644   18.4799   18.5412   18.5587   18.8243   18.8330
   18.8913   18.9070   18.9217   18.9450   19.1350   19.1477   19.3144   19.3269   19.3822   19.3958
[...]
   52.3568   52.4043   52.5335   52.5834   52.6884   52.7307   53.0460   53.0992   53.1114   53.2321
   53.2757   53.3548   53.6837   53.7920   53.9284   53.9845   54.1402   54.2361   54.5783   54.6062
   54.6726   54.7344   55.2571   55.2973   55.4276   55.4577   55.7765   55.9353   56.1655   56.2038
   56.3145   56.3881   56.4302   56.4723   56.6892   56.7335   56.8845   56.9318   57.2322   57.3108
   57.4597   57.5632   57.8623   57.9553   58.1716   58.2231   58.3029   58.3695   58.5086   58.5789
   58.6884   58.7440   59.0417   59.1446   59.3531   59.3710   59.6094   59.6404   60.0260   60.1365
   60.4078   60.4346   60.4776   60.4868   60.5636   60.5892   61.1583   61.2183   61.4063   61.4303
   61.6288   61.6514   61.7292   61.7615   61.9420   62.0157   62.2657   62.3072   62.6962   62.8453
   62.8540   62.8968   63.2557   63.4398   63.9503   64.0136   64.9616   65.0409   65.6895   65.7111
   66.0179   66.0597   66.7101   66.8276   67.4983   67.7030   68.2181   68.8558   69.0955   69.2420
   69.5886   70.0343   71.2544   71.3988   73.2479   73.3785   78.6998   78.8617   79.3229   79.3498
   80.5267   80.5343   81.2646   81.3124   82.3763   82.4057   85.5337   85.5694   85.7809   85.8287
   90.6694   90.6747   90.9140   90.9154   93.0839   93.2475   93.4333   93.6136   93.8681   93.9464
   95.1498   95.3432   95.4563   95.5981   97.0264   97.0855   97.4556   97.5753   98.1501   98.2620
  100.1111  100.1121  101.4051  101.4178  101.6614  102.0375  109.2002  109.3992  111.8045  111.9863
siesta: Fermi energy =      -6.455514 eV

siesta: Program's energy decomposition (eV):
siesta: Ebs     =     -2145.381470
siesta: Eions   =      8062.213954
siesta: Ena     =       479.284456
siesta: Ekin    =      5905.681718
siesta: Enl     =     -4310.852862
siesta: Eso     =        -0.009550
siesta: Edftu   =         0.000000
siesta: DEna    =       -16.289485
siesta: DUscf   =        21.478186
siesta: DUext   =         0.000000
siesta: Exc     =     -2059.054421
siesta: eta*DQ  =         0.000000
siesta: Emadel  =         0.000000
siesta: Emeta   =         0.000000
siesta: Emolmec =         0.000000
siesta: Ekinion =         0.000006
siesta: Eharris =     -8041.975905
siesta: Etot    =     -8041.975905
siesta: FreeEng =     -8041.996534

siesta: Final energy (eV):
siesta:  Band Struct. =   -2145.381470
siesta:       Kinetic =    5905.681718
siesta:       Hartree =   19659.978523
siesta:       Edftu   =       0.000000
siesta:       Eso     =      -0.009550
siesta:    Ext. field =       0.000000
siesta:   Exch.-corr. =   -2059.054421
siesta:  Ion-electron =  -44700.116642
siesta:       Ion-ion =   13151.544460
siesta:       Ekinion =       0.000006
siesta:         Total =   -8041.975905
siesta:         Fermi =      -6.455514

siesta: Stress tensor (static) (eV/Ang**3):
siesta:     0.000280    0.000197    0.000108
siesta:     0.000197   -0.000214   -0.000157
siesta:     0.000108   -0.000157   -0.000536

siesta: Cell volume =      10537.403706 Ang**3

siesta: Pressure (static):
siesta:                Solid            Molecule  Units
siesta:           0.00000171          0.00000170  Ry/Bohr**3
siesta:           0.00015678          0.00015569  eV/Ang**3
siesta:           0.25119715          0.24944922  kBar
(Free)E+ p_basis*V_orbitals  =       -8005.820950
(Free)Eharris+ p_basis*V_orbitals  =       -8005.820951
     spin moment: S , {S} =    1.95261   0.00305  -0.00310   1.95260

siesta: Electric dipole (a.u.)  =    0.178891   -2.413548    0.776035
siesta: Electric dipole (Debye) =    0.454697   -6.134631    1.972485

cite: Please see "desoxy1-3.bib" for an exhaustive BiBTeX file.
cite: Please clearly indicate Siesta version in published work: v4.1.5-1-g384057250
cite: This calculation has made use of the following articles
cite: which are encouraged to be cited in a published work.
        Primary SIESTA paper
          DOI: www.doi.org/10.1088/0953-8984/14/11/302
        Spin-orbit coupling (on-site approximation)
          DOI: www.doi.org/10.1088/0953-8984/19/19/489001

WARNING: alloc-realloc-dealloc name mismatch
         Name: atomlist isa
         Node:     0
         Subsequent mismatches will not be reported
>> End of run:  17-OCT-2023  20:28:14
Job completed