>> Start of run:  19-FEB-2022  20:14:21

reinit: Reading from standard input
reinit: Dumped input in INPUT_TMP.82235
************************** Dump of input data file ****************************
# Created by GDIS version 0.90.0
#
SystemLabel      G
NumberOfAtoms    16
NumberOfSpecies  4
%block ChemicalSpeciesLabel
    1    1  H
    2    7  N
    3   14  Si
    4    8  O
%endblock ChemicalSpeciesLabel
AtomicCoordinatesFormat NotScaledCartesianAng
%block AtomicCoordinatesAndAtomicSpecies
    4.09111767   -6.54843894    0.00000000   1       1  H
    3.14776748   -6.31655839    0.00000000   2       2  N
    1.77640042   -7.45251394   -0.00000000   3       3  Si
    2.10502251   -8.88196200    0.00000000   1       4  H
    0.33854946   -6.84669038   -0.00000000   2       5  N
    0.59280334   -5.14191039   -0.00000000   3       6  Si
   -0.29812022   -3.22852333   -0.00000000   3       7  Si
   -1.75271636   -3.10299508   -0.00000000   4       8  O
    0.99753882   -1.84078069   -0.00000000   2       9  N
    0.52579455   -0.89693226   -0.00000000   1      10  H
    2.73088369   -1.92564054   -0.00000000   3      11  Si
    3.53883436   -0.39848908    0.00000000   2      12  N
    3.07059618    0.53839033    0.00000000   1      13  H
    4.58258156   -0.36252263    0.00000000   1      14  H
    3.69017563   -3.33635905   -0.00000000   2      15  N
    2.58391956   -4.66965570   -0.00000000   3      16  Si
%endblock AtomicCoordinatesAndAtomicSpecies
%include ../defaults.fdf
************************** End of input data file *****************************

reinit: -----------------------------------------------------------------------
reinit: System Name:
reinit: -----------------------------------------------------------------------
reinit: System Label: G
reinit: -----------------------------------------------------------------------

initatom: Reading input for the pseudopotentials and atomic orbitals ----------
Species number:   1 Atomic number:    1 Label: H
Species number:   2 Atomic number:    7 Label: N
Species number:   3 Atomic number:   14 Label: Si
Species number:   4 Atomic number:    8 Label: O

Ground state valence configuration:   1s01
Reading pseudopotential information in formatted form from H.psf

Pseudopotential generated from a relativistic atomic calculation

Valence configuration for pseudopotential generation:
1s( 1.00) rc: 0.01
2p( 0.00) rc: 0.60
3d( 0.00) rc: 1.99
4f( 0.00) rc: 2.49
Ground state valence configuration:   2s02  2p03
Reading pseudopotential information in formatted form from N.psf

[...]

Valence configuration for pseudopotential generation:
3s( 2.00) rc: 1.67
3p( 2.00) rc: 2.04
3d( 0.00) rc: 2.89
4f( 0.00) rc: 0.25
Ground state valence configuration:   2s02  2p04
Reading pseudopotential information in formatted form from O.psf

Pseudopotential generated from a relativistic atomic calculation

Valence configuration for pseudopotential generation:
2s( 2.00) rc: 0.45
2p( 4.00) rc: 0.92
3d( 0.00) rc: 2.24
4f( 0.00) rc: 0.25
For H, standard SIESTA heuristics set lmxkb to 2
 (one more than the basis l, including polarization orbitals).
Use PS.lmax or PS.KBprojectors blocks to override.
For N, standard SIESTA heuristics set lmxkb to 3
 (one more than the basis l, including polarization orbitals).
Use PS.lmax or PS.KBprojectors blocks to override.
For Si, standard SIESTA heuristics set lmxkb to 3
 (one more than the basis l, including polarization orbitals).
Use PS.lmax or PS.KBprojectors blocks to override.
For O, standard SIESTA heuristics set lmxkb to 3
 (one more than the basis l, including polarization orbitals).
Use PS.lmax or PS.KBprojectors blocks to override.

<basis_specs>
H                    Z=   1    Mass=  1.0100        Charge= 0.17977+309
Lmxo=0 Lmxkb= 2    BasisType=split      Semic=F
L=0  Nsemic=0  Cnfigmx=1
          i=1  nzeta=2  polorb=1  (1s)
            splnorm:   0.62000
               vcte:    0.0000
               rinn:    0.0000
               qcoe:    0.0000
               qyuk:    0.0000
               qwid:   0.10000E-01
                rcs:    0.0000      0.0000
            lambdas:    1.0000      1.0000
L=0  Nkbl=1  erefs: 0.17977+309
L=1  Nkbl=1  erefs: 0.17977+309
L=2  Nkbl=1  erefs: 0.17977+309
</basis_specs>

atom: Called for H                     (Z =   1)

read_vps: Pseudopotential generation method:
read_vps: ATM4.2.7  Troullier-Martins
Valence charge for ps generation:    1.00000

xc_check: Exchange-correlation functional:
xc_check: GGA Perdew, Burke & Ernzerhof 1996
V l=0 = -2*Zval/r beyond r=  0.0098
V l=1 = -2*Zval/r beyond r=  0.5817
V l=2 = -2*Zval/r beyond r=  1.9372
All V_l potentials equal beyond r=  1.9372
This should be close to max(r_c) in ps generation
All pots = -2*Zval/r beyond r=  1.9372

VLOCAL1: 99.0% of the norm of Vloc inside     11.567 Ry
VLOCAL1: 99.9% of the norm of Vloc inside     26.362 Ry
atom: Maximum radius for 4*pi*r*r*local-pseudopot. charge    2.25106
atom: Maximum radius for r*vlocal+2*Zval:    1.91306
GHOST: No ghost state for L =  0
GHOST: No ghost state for L =  1
GHOST: No ghost state for L =  2

KBgen: Kleinman-Bylander projectors:
   l= 0   rc=  2.036604   el= -0.477180   Ekb= -6.081590   kbcos= -0.277285
   l= 1   rc=  2.195416   el=  0.001076   Ekb= -0.926943   kbcos= -0.034643
   l= 2   rc=  2.251056   el=  0.002010   Ekb= -0.130941   kbcos= -0.009788

KBgen: Total number of Kleinman-Bylander projectors:    9
atom: -------------------------------------------------------------------------

atom: SANKEY-TYPE ORBITALS:
atom: Selected multiple-zeta basis: split

SPLIT: Orbitals with angular momentum L= 0

SPLIT: Basis orbitals for state 1s

SPLIT: PAO cut-off radius determined from an
SPLIT: energy shift=  0.002000 Ry

   izeta = 1
                 lambda =    1.000000
                     rc =    6.518340
                 energy =   -0.475305
                kinetic =    0.912139
    potential(screened) =   -1.387444
       potential(ionic) =   -1.907295

   izeta = 2
                 rmatch =    2.141150
              splitnorm =    0.620000
                 energy =    0.566467
                kinetic =    3.772856
    potential(screened) =   -3.206389
       potential(ionic) =   -3.759093

POLgen: Perturbative polarization orbital with L=  1

POLgen: Polarization orbital for state 1s

   izeta = 1
                     rc =    6.518340
                 energy =    0.533861
                kinetic =    1.121086
    potential(screened) =   -0.587225
       potential(ionic) =   -1.053027
atom: Total number of Sankey-type orbitals:  5

atm_pop: Valence configuration (for local Pseudopot. screening):
 1s( 1.00)
Vna: chval, zval:    1.00000   1.00000

Vna:  Cut-off radius for the neutral-atom potential:   6.518340

atom: _________________________________________________________________________

<basis_specs>
N                    Z=   7    Mass=  14.010        Charge= 0.17977+309
Lmxo=1 Lmxkb= 3    BasisType=split      Semic=F
L=0  Nsemic=0  Cnfigmx=2
          i=1  nzeta=2  polorb=0  (2s)
            splnorm:   0.28000
               vcte:    0.0000
               rinn:    0.0000
               qcoe:    0.0000
               qyuk:    0.0000
               qwid:   0.10000E-01
                rcs:    0.0000      0.0000
            lambdas:    1.0000      1.0000
L=1  Nsemic=0  Cnfigmx=2
          i=1  nzeta=2  polorb=1  (2p)
            splnorm:   0.28000
               vcte:    0.0000
               rinn:    0.0000
               qcoe:    0.0000
               qyuk:    0.0000
               qwid:   0.10000E-01
                rcs:    0.0000      0.0000
            lambdas:    1.0000      1.0000
L=0  Nkbl=1  erefs: 0.17977+309
L=1  Nkbl=1  erefs: 0.17977+309
L=2  Nkbl=1  erefs: 0.17977+309
L=3  Nkbl=1  erefs: 0.17977+309
</basis_specs>

[...]

KBgen: Kleinman-Bylander projectors:
   l= 0   rc=  3.417763   el= -1.365098   Ekb= -4.433130   kbcos= -0.707855
   l= 1   rc=  3.375302   el= -0.521201   Ekb=-13.264039   kbcos= -0.535594
   l= 2   rc=  3.872880   el=  0.001991   Ekb= -0.641094   kbcos= -0.062456
   l= 3   rc=  3.970931   el=  0.003093   Ekb= -0.474517   kbcos= -0.018236

[...]

SPLIT: Basis orbitals for state 2p

[...]

POLgen: Polarization orbital for state 2p

[...]

atm_pop: Valence configuration (for local Pseudopot. screening):
 2s( 2.00)
 2p( 3.00)
Vna: chval, zval:    5.00000   5.00000

[...]

KBgen: Kleinman-Bylander projectors:
   l= 0   rc=  3.075247   el= -0.794092   Ekb=  5.879390   kbcos=  0.167461
   l= 1   rc=  3.153101   el= -0.300068   Ekb=  2.642817   kbcos=  0.058301
   l= 2   rc=  3.273594   el=  0.001958   Ekb= -1.185135   kbcos= -0.104411
   l= 3   rc=  3.232927   el=  0.003046   Ekb= -1.061051   kbcos= -0.011037

[...]

<basis_specs>
O                    Z=   8    Mass=  16.000        Charge= 0.17977+309
Lmxo=1 Lmxkb= 3    BasisType=split      Semic=F
L=0  Nsemic=0  Cnfigmx=2
          i=1  nzeta=2  polorb=0  (2s)
            splnorm:   0.28000
               vcte:    0.0000
               rinn:    0.0000
               qcoe:    0.0000
               qyuk:    0.0000
               qwid:   0.10000E-01
                rcs:    0.0000      0.0000
            lambdas:    1.0000      1.0000
L=1  Nsemic=0  Cnfigmx=2
          i=1  nzeta=2  polorb=1  (2p)
            splnorm:   0.28000
               vcte:    0.0000
               rinn:    0.0000
               qcoe:    0.0000
               qyuk:    0.0000
               qwid:   0.10000E-01
                rcs:    0.0000      0.0000
            lambdas:    1.0000      1.0000
L=0  Nkbl=1  erefs: 0.17977+309
L=1  Nkbl=1  erefs: 0.17977+309
L=2  Nkbl=1  erefs: 0.17977+309
L=3  Nkbl=1  erefs: 0.17977+309
</basis_specs>

atom: Called for O                     (Z =   8)

read_vps: Pseudopotential generation method:
read_vps: ATM4.2.7  Troullier-Martins
Valence charge for ps generation:    6.00000

xc_check: Exchange-correlation functional:
xc_check: GGA Perdew, Burke & Ernzerhof 1996
V l=0 = -2*Zval/r beyond r=  1.1000
V l=1 = -2*Zval/r beyond r=  1.1000
V l=2 = -2*Zval/r beyond r=  2.2154
V l=3 = -2*Zval/r beyond r=  1.1000
All V_l potentials equal beyond r=  2.2154
This should be close to max(r_c) in ps generation
All pots = -2*Zval/r beyond r=  2.2154

VLOCAL1: 99.0% of the norm of Vloc inside      8.845 Ry
VLOCAL1: 99.9% of the norm of Vloc inside     20.157 Ry
atom: Maximum radius for 4*pi*r*r*local-pseudopot. charge    2.67231
atom: Maximum radius for r*vlocal+2*Zval:    2.32897
GHOST: No ghost state for L =  0
GHOST: No ghost state for L =  1
GHOST: No ghost state for L =  2
GHOST: No ghost state for L =  3

KBgen: Kleinman-Bylander projectors:
   l= 0   rc=  2.243238   el= -1.759686   Ekb=**********   kbcos= -0.171774
   l= 1   rc=  2.328968   el= -0.663873   Ekb=-14.506792   kbcos= -0.519897
   l= 2   rc=  2.573941   el=  0.002031   Ekb= -1.137373   kbcos= -0.019581
   l= 3   rc=  2.606321   el=  0.003153   Ekb= -1.013546   kbcos= -0.003122

KBgen: Total number of Kleinman-Bylander projectors:   16
atom: -------------------------------------------------------------------------

atom: SANKEY-TYPE ORBITALS:
atom: Selected multiple-zeta basis: split

[...]

SPLIT: Basis orbitals for state 2s

[...]

[...]
    0.68539510   -7.26765300    0.00049498   2       5  N
    0.80264237   -5.46756273   -0.00183233   3       6  Si
   -0.32719127   -3.54241355    0.00082974   3       7  Si
   -1.84706485   -3.05166980    0.00002857   4       8  O
    1.00183001   -2.20443991   -0.00004334   2       9  N
    0.52686345   -1.25534450   -0.00000626   1      10  H
    2.76237530   -2.16676103   -0.00003880   3      11  Si
    3.48102574   -0.57601516    0.00005199   2      12  N
    2.99345348    0.35648717   -0.00000045   1      13  H
    4.53261415   -0.52051707    0.00000556   1      14  H
    3.86221519   -3.47027881   -0.00018623   2      15  N
    2.94263233   -4.95492213    0.00047750   3      16  Si

outcell: Unit cell vectors (Ang):
       14.090405    0.000000    0.000000
        0.000000   17.950970    0.000000
        0.000000    0.000000    9.854683

outcell: Cell vector modules (Ang)   :   14.090405   17.950970    9.854683
outcell: Cell angles (23,13,12) (deg):     90.0000     90.0000     90.0000
outcell: Cell volume (Ang**3)        :   2492.6085
<dSpData1D:S at geom step 269
  <sparsity:sparsity for geom step 269
    nrows_g=168 nrows=10 sparsity=.0579 nnzs=1635, refcount: 7>
  <dData1D:(new from dSpData1D) n=1635, refcount: 1>
refcount: 1>
new_DM -- step:   270
Re-using DM from previous geometries...
Number of DMs in history: 1
 DM extrapolation coefficients:
1   1.00000
New DM after history re-use:
<dSpData2D:SpM extrapolated using coords
  <sparsity:sparsity for geom step 269
    nrows_g=168 nrows=10 sparsity=.0579 nnzs=1635, refcount: 9>
  <dData2D:(temp array for extrapolation) n=1635 m=2, refcount: 1>
refcount: 1>
     spin moment: S , {S} =    0.00000       0.0       0.0   0.00000
No. of atoms with KB's overlaping orbs in proc 0. Max # of overlaps:      16     141
New grid distribution:   1
           1       1:   80    1:   25    1:    8
           2       1:   80    1:   25    9:   16
           3       1:   80    1:   25   17:   24
           4       1:   80    1:   25   25:   32
           5       1:   80    1:   25   33:   39
           6       1:   80    1:   25   40:   46
           7       1:   80    1:   25   47:   53
           8       1:   80    1:   25   54:   60
           9       1:   80   26:   50    1:    8
          10       1:   80   26:   50    9:   16
          11       1:   80   26:   50   17:   24
          12       1:   80   26:   50   25:   32
          13       1:   80   26:   50   33:   39
          14       1:   80   26:   50   40:   46
          15       1:   80   26:   50   47:   53
          16       1:   80   26:   50   54:   60
          17       1:   80   51:   75    1:    8
          18       1:   80   51:   75    9:   16
          19       1:   80   51:   75   17:   24
          20       1:   80   51:   75   25:   32
          21       1:   80   51:   75   33:   39
          22       1:   80   51:   75   40:   46
          23       1:   80   51:   75   47:   53
          24       1:   80   51:   75   54:   60
          25       1:   80   76:  100    1:    8
          26       1:   80   76:  100    9:   16
          27       1:   80   76:  100   17:   24
          28       1:   80   76:  100   25:   32
          29       1:   80   76:  100   33:   39
          30       1:   80   76:  100   40:   46
          31       1:   80   76:  100   47:   53
          32       1:   80   76:  100   54:   60

InitMesh: MESH =   160 x   200 x   120 =     3840000
InitMesh: (bp) =    80 x   100 x    60 =      480000
InitMesh: Mesh cutoff (required, used) =   340.000   343.072 Ry
ExtMesh (bp) on 0 =   184 x   125 x   120 =     2760000
New grid distribution:   2
           1       1:    9    1:   63    1:   22
           2       1:    9   64:   74   23:   60
           3      11:   17   86:  100    1:   21
           4      26:   80    1:   64   21:   60
           5      17:   25    1:   64   21:   60
           6      30:   80   75:   85    1:   19
           7      10:   17   75:   85   22:   60
           8       1:    9   75:   85    1:   21
           9      26:   80    1:   64    1:   20
          10      17:   25    1:   64    1:   20
          11       1:   10   86:  100    1:   21
          12      17:   26   65:   74    1:   20
          13       1:    9    1:   63   23:   60
          14      10:   16    1:   63    1:   22
          15      18:   28   86:  100    1:   19
          16      10:   17   75:   85    1:   21
          17      27:   80   65:   74    1:   20
          18       1:    9   64:   74    1:   22
          19       1:    9   75:   85   22:   60
          20      27:   80   65:   74   21:   60
          21      10:   16    1:   63   23:   60
          22       1:   10   86:  100   22:   60
          23      17:   26   65:   74   21:   60
          24      10:   16   64:   74   23:   60
          25      29:   80   86:  100    1:   19
          26      18:   29   75:   85    1:   19
          27      11:   17   86:  100   22:   60
          28      29:   80   85:  100   20:   60
          29      30:   80   75:   84   20:   60
          30      18:   28   85:  100   20:   60
          31      18:   29   75:   84   20:   60
          32      10:   16   64:   74    1:   22
New grid distribution:   3
           1       1:   12    1:   45    1:   26
           2      15:   29   68:   83   28:   60
           3      65:   80   84:  100    1:   25
           4      33:   80    1:   52   24:   60
           5      23:   32    1:   52   24:   60
           6      30:   64   68:   83    1:   25
           7      16:   29   84:  100   28:   60
           8      16:   29   84:  100    1:   27
           9      33:   80    1:   51    1:   23
          10      23:   32    1:   51    1:   23
          11      65:   80   68:   83    1:   25
          12       1:   11   47:   67   27:   60
          13       1:   12    1:   46   27:   60
          14      13:   22    1:   45    1:   26
          15      12:   22   47:   67   27:   60
          16      12:   22   46:   67    1:   26
          17      42:   80   52:   67    1:   23
          18       1:   14   68:   83   28:   60
          19      15:   29   68:   83    1:   27
          20      42:   80   53:   67   24:   60
          21      30:   65   68:   83   26:   60
          22      23:   41   53:   67   24:   60
          23      66:   80   68:   83   26:   60
          24       1:   11   46:   67    1:   26
          25      30:   64   84:  100    1:   25
          26      23:   41   52:   67    1:   23
          27       1:   15   84:  100    1:   27
          28      30:   64   84:  100   26:   60
          29      13:   22    1:   46   27:   60
          30      65:   80   84:  100   26:   60
          31       1:   15   84:  100   28:   60
          32       1:   14   68:   83    1:   27
Setting up quadratic distribution...
ExtMesh (bp) on 0 =   113 x   163 x   134 =     2468146
PhiOnMesh: Number of (b)points on node 0 =                12474
PhiOnMesh: nlist on node 0 =               188290

        iscf     Eharris(eV)        E_KS(eV)     FreeEng(eV)     dDmax    Ef(eV) dHmax(eV)
   scf:    1    -2396.264598    -2396.264216    -2396.264216  0.000053 -3.105159  0.001833
     spin moment: S , {S} =   -0.00000       0.0       0.0  -0.00000
   scf:    2    -2396.264210    -2396.264214    -2396.264214  0.000110 -3.105668  0.007719
     spin moment: S , {S} =    0.00000       0.0       0.0   0.00000
   scf:    3    -2396.264216    -2396.264216    -2396.264216  0.000089 -3.105269  0.000207
     spin moment: S , {S} =    0.00000       0.0       0.0   0.00000

SCF Convergence by DM+H criterion
max |DM_out - DM_in|         :     0.0000887066
max |H_out - H_in|      (eV) :     0.0002068729
SCF cycle converged after 3 iterations

Using DM_out to compute the final energy and forces
No. of atoms with KB's overlaping orbs in proc 0. Max # of overlaps:      16     141

siesta: E_KS(eV) =            -2396.2642
     spin moment: S , {S} =    0.00000       0.0       0.0   0.00000

siesta: Atomic forces (eV/Ang):
     1   -0.001847    0.001737    0.000005
     2   -0.000587   -0.000014    0.000075
     3   -0.002419   -0.002663    0.000927
     4   -0.000218   -0.000297   -0.000004
     5    0.000821    0.001181    0.001152
     6   -0.002666   -0.000318   -0.003955
     7    0.000081    0.000998    0.001931
     8    0.003793   -0.001874   -0.003404
     9    0.000946    0.000483   -0.000150
    10   -0.000373   -0.003118   -0.000005
    11   -0.001303   -0.000951   -0.000063
    12    0.001389    0.001168    0.000088
    13    0.000137    0.001625    0.000002
    14    0.000094    0.001965    0.000016
    15   -0.002518    0.000222   -0.000372
    16   -0.001981    0.000610    0.001071
   Tot   -0.006652    0.000755   -0.002684
   Max    0.003955
   Res    0.001559    sqrt( Sum f_i^2 / 3N )
   Max    0.003955    constrained

Stress tensor Voigt[x,y,z,yz,xz,xy] (kbar):       -0.06       -0.38       -0.14       -0.00        0.00        0.42
(Free)E + p*V (eV/cell)    -2395.9614
Target enthalpy (eV/cell)    -2396.2642

mulliken: Atomic and Orbital Populations:

mulliken: Spin UP

[...]

mulliken: Spin DOWN

Species: H
Atom  Qatom  Qorb
   1  0.392   0.251   0.095   0.012   0.019   0.014
   4  0.594   0.509   0.049   0.018   0.010   0.008
  10  0.387   0.248   0.094   0.012   0.019   0.015
  13  0.381   0.240   0.098   0.014   0.026   0.003
  14  0.371   0.231   0.099   0.007   0.023   0.010

[...]

Species: O
Atom  Qatom  Qorb
               3Pdxy   3Pdyz   3Pdz2   3Pdxz   3Pdx2-y2
   8  3.232   0.869   0.037   0.805   0.769   0.713   0.006  -0.001   0.022
              0.004   0.000   0.001   0.005   0.004

mulliken: Qtot =       28.000

outcoor: Relaxed atomic coordinates (Ang):
    4.66800882   -6.91056710    0.00000234   1       1  H
    3.64906695   -6.63205561    0.00005027   2       2  N
    2.29772723   -7.82118773    0.00040541   3       3  Si
    2.73009516   -9.24646199    0.00000090   1       4  H
    0.68539510   -7.26765300    0.00049498   2       5  N
    0.80264237   -5.46756273   -0.00183233   3       6  Si
   -0.32719127   -3.54241355    0.00082974   3       7  Si
   -1.84706485   -3.05166980    0.00002857   4       8  O
    1.00183001   -2.20443991   -0.00004334   2       9  N
    0.52686345   -1.25534450   -0.00000626   1      10  H
    2.76237530   -2.16676103   -0.00003880   3      11  Si
    3.48102574   -0.57601516    0.00005199   2      12  N
    2.99345348    0.35648717   -0.00000045   1      13  H
    4.53261415   -0.52051707    0.00000556   1      14  H
    3.86221519   -3.47027881   -0.00018623   2      15  N
    2.94263233   -4.95492213    0.00047750   3      16  Si

coxmol: Writing XMOL coordinates into file G.xyz

siesta: Eigenvalues (eV):
  ik is       eps
   1  1  -22.0536  -21.8912  -21.4106  -21.0496  -19.9673  -19.5444  -14.0633  -13.3379  -13.2417  -12.9785
         -12.6571  -11.6061  -10.8768  -10.8141   -9.3575   -9.0606   -8.8469   -8.7583   -8.3295   -7.8418
   -7.5317   -7.4349   -6.9969   -6.6761   -6.4088   -6.3418   -5.9660   -4.4894   -2.4826   -2.3384
   -2.0662   -2.0106   -1.6801   -1.2094   -0.9612   -0.5661    0.2028    0.2542    0.4718    0.6733
    1.1714    1.3078    1.5594    2.1930    2.5718    2.5859    2.8865    3.1949    3.6213    3.7027
    4.2104    4.4552    4.5329    4.8913    5.1011    5.5300    5.6080    5.7613    5.8257    6.2231
    6.4818    7.0013    7.1999    7.3717    7.6339    8.1253    8.4008    8.4981    8.6039    9.0516
    9.0778    9.6986    9.7303   10.2788   10.7009   10.7173   10.8357   11.7549   11.8134   11.9787
   12.2235   12.5050   13.2687   13.6190   14.1188   14.2631   14.6136   16.0055   16.1396   16.8678
   17.9721   18.3404   18.5987   19.0182   19.9142   21.8743   22.5783   23.0620   23.3602   23.8641
   25.0634   26.6817   28.7089   29.2867   29.6632   29.8914   30.1644   30.5667   30.8235   30.8518
   32.1746   33.7433   34.4181   34.8093   35.2363   35.2552   36.5644   36.6951   37.1575   37.2704
   38.1152   39.1353   39.9353   40.4020   40.8029   40.9885   41.2694   42.8707   43.1603   43.7896
   43.8100   44.5527   44.5861   45.1024   46.2775   46.7594   47.3674   49.1361   49.2303   50.4110
   51.0407   51.6515   52.4362   54.3699   54.7279   55.6102   56.2248   58.0875   58.7360   60.2637
   60.9147   61.7788   62.0145   64.2348   66.9033   67.1693   68.1303   70.9408   73.5053   89.9204
   93.2166   97.8059  103.0573  103.1765  109.2082  124.0218  131.1897  140.5268
   1  2  -22.0536  -21.8912  -21.4106  -21.0496  -19.9673  -19.5444  -14.0633  -13.3379  -13.2417  -12.9785
         -12.6571  -11.6061  -10.8768  -10.8141   -9.3575   -9.0606   -8.8469   -8.7583   -8.3295   -7.8418
   -7.5317   -7.4349   -6.9969   -6.6761   -6.4088   -6.3418   -5.9660   -4.4894   -2.4826   -2.3384
   -2.0662   -2.0106   -1.6801   -1.2094   -0.9612   -0.5661    0.2028    0.2542    0.4718    0.6733
    1.1714    1.3078    1.5594    2.1930    2.5718    2.5859    2.8865    3.1949    3.6213    3.7027
    4.2104    4.4552    4.5329    4.8913    5.1011    5.5300    5.6080    5.7613    5.8257    6.2231
    6.4818    7.0013    7.1999    7.3717    7.6339    8.1253    8.4008    8.4981    8.6039    9.0516
    9.0778    9.6986    9.7303   10.2788   10.7009   10.7173   10.8357   11.7549   11.8134   11.9787
   12.2235   12.5050   13.2687   13.6190   14.1188   14.2631   14.6136   16.0055   16.1396   16.8678
   17.9721   18.3404   18.5987   19.0182   19.9142   21.8743   22.5783   23.0620   23.3602   23.8641
   25.0634   26.6817   28.7089   29.2867   29.6632   29.8914   30.1644   30.5667   30.8235   30.8518
   32.1746   33.7433   34.4181   34.8093   35.2363   35.2552   36.5644   36.6951   37.1575   37.2704
   38.1152   39.1353   39.9353   40.4020   40.8029   40.9885   41.2694   42.8707   43.1603   43.7896
   43.8100   44.5527   44.5861   45.1024   46.2775   46.7594   47.3674   49.1361   49.2303   50.4110
   51.0407   51.6515   52.4362   54.3699   54.7279   55.6102   56.2248   58.0875   58.7360   60.2637
   60.9147   61.7788   62.0145   64.2348   66.9033   67.1693   68.1303   70.9408   73.5053   89.9204
   93.2166   97.8059  103.0573  103.1765  109.2082  124.0218  131.1897  140.5268
siesta: Fermi energy =      -3.105269 eV

siesta: Program's energy decomposition (eV):
siesta: Ebs     =      -659.065338
siesta: Eions   =      2040.955082
siesta: Ena     =       223.107057
siesta: Ekin    =      1679.670593
siesta: Enl     =     -1651.215670
siesta: Eso     =         0.000000
siesta: Edftu   =         0.000000
siesta: DEna    =        30.294440
siesta: DUscf   =         8.057197
siesta: DUext   =         0.000000
siesta: Exc     =      -645.222751
siesta: eta*DQ  =         0.000000
siesta: Emadel  =         0.000000
siesta: Emeta   =         0.000000
siesta: Emolmec =         0.000000
siesta: Ekinion =         0.000000
siesta: Eharris =     -2396.264216
siesta: Etot    =     -2396.264216
siesta: FreeEng =     -2396.264216

siesta: Final energy (eV):
siesta:  Band Struct. =    -659.065338
siesta:       Kinetic =    1679.670593
siesta:       Hartree =    3997.157876
siesta:       Edftu   =       0.000000
siesta:       Eso     =       0.000000
siesta:    Ext. field =       0.000000
siesta:   Exch.-corr. =    -645.222751
siesta:  Ion-electron =   -9495.326948
siesta:       Ion-ion =    2067.457014
siesta:       Ekinion =       0.000000
siesta:         Total =   -2396.264216
siesta:         Fermi =      -3.105269

siesta: Stress tensor (static) (eV/Ang**3):
siesta:    -0.000040    0.000260    0.000000
siesta:     0.000260   -0.000239   -0.000000
siesta:     0.000000   -0.000000   -0.000086

siesta: Cell volume =       2492.608533 Ang**3

siesta: Pressure (static):
siesta:                Solid            Molecule  Units
siesta:           0.00000132          0.00000134  Ry/Bohr**3
siesta:           0.00012149          0.00012333  eV/Ang**3
siesta:           0.19465728          0.19760122  kBar
(Free)E+ p_basis*V_orbitals  =       -2385.274540
(Free)Eharris+ p_basis*V_orbitals  =       -2385.274541
     spin moment: S , {S} =    0.00000       0.0       0.0   0.00000

siesta: Electric dipole (a.u.)  =    3.331868    0.850313    0.000490
siesta: Electric dipole (Debye) =    8.468769    2.161282    0.001246

cite: Please see "G.bib" for an exhaustive BiBTeX file.
cite: Please clearly indicate Siesta version in published work: v4.1.5-1-g384057250
cite: This calculation has made use of the following articles
cite: which are encouraged to be cited in a published work.
        Primary SIESTA paper
          DOI: www.doi.org/10.1088/0953-8984/14/11/302

WARNING: alloc-realloc-dealloc name mismatch
         Name: atomlist isa
         Node:     0
         Subsequent mismatches will not be reported
>> End of run:  19-FEB-2022  20:43:07
Job completed