 NOTE: Siesta V5 introduces some new defaults for basis-set generation
 NOTE: which might lead to slightly different numerical results.
 NOTE: Please see the manual for full details and compatibility measures.

reinit: Reading from standard input
reinit: Dumping input in INPUT_TMP.80250
************************** Dump of input data file ****************************
# mpirun -np 8 siesta-5 < Guanine.fdf > Guanine.out
SystemLabel      Guanine
NumberOfAtoms    16
NumberOfSpecies  4
%block ChemicalSpeciesLabel
    1    1  H ../../../Pseudos/VW/H/H.psf
    2    7  N ../../../Pseudos/VW/N/N.psf
    3    14 Si ../../../Pseudos/VW/Si/Si.psf
    4    8  O ../../../Pseudos/VW/O/O.psf
%endblock ChemicalSpeciesLabel
# This overrides Defaults.fdf configuration
XC.Functional               VDW
XC.Authors                  DRSLL
MD.Steps                    1000
%block Geometry.Constraints
    atom all 0.0 0.0 1.0 # constrain along z Cartesian vector
    atom [6]
%endblock
AtomicCoordinatesFormat NotScaledCartesianAng
%block AtomicCoordinatesAndAtomicSpecies
    5.51499433   -6.73542603    0.00000000   1       1  H
    4.49668993   -6.49969802    0.00000000   2       2  N
    3.20696287   -7.73699471    0.00000000   3       3  Si
    3.70523112   -9.12632560    0.00000000   1       4  H
    1.58602673   -7.26864074    0.00000000   2       5  N
    1.60862386   -5.46691202    0.00000000   3       6  Si
    0.39664659   -3.60445475    0.00000000   3       7  Si
   -1.13326124   -3.19545819    0.00000000   4       8  O
    1.63964823   -2.18836936    0.00000000   2       9  N
    1.07273950   -1.29576183    0.00000000   1      10  H
    3.39197379   -2.08169151    0.00000000   3      11  Si
    4.08086968   -0.48706852    0.00000000   2      12  N
    3.54076212    0.40505808    0.00000000   1      13  H
    5.12537589   -0.39066969    0.00000000   1      14  H
    4.51824581   -3.33711575    0.00000000   2      15  N
    3.70506191   -4.86141287    0.00000000   3      16  Si
%endblock AtomicCoordinatesAndAtomicSpecies
# Unit Cell
LatticeConstant 1.0 Ang
%block LatticeVectors
       13.438530    0.000000    0.000000
        0.000000   17.285978    0.000000
        0.000000    0.000000    8.754136
%endblock LatticeVectors
%include ../../../Defaults.fdf
************************** End of input data file *****************************

reinit: -----------------------------------------------------------------------
reinit: System Name:
reinit: -----------------------------------------------------------------------
reinit: System Label: Guanine
reinit: -----------------------------------------------------------------------

NOTE on units for spin output:
{S} is the spin magnetic moment, in units of the Bohr magneton,
assuming a g-factor for the electron spin of exactly 2.
The spin magnetic moment is then numerically equal to the charge inbalance,
in units of electrons, between the spin-up and -down channels.

initatom: Reading input for the pseudopotentials and atomic orbitals ----------
Species number:   1 Atomic number:    1 Label: H
Species number:   2 Atomic number:    7 Label: N
Species number:   3 Atomic number:   14 Label: Si
Species number:   4 Atomic number:    8 Label: O

Ground state valence configuration (from tables):   1s01  2p00  3d00  4f00
Ground state valence configuration (from tables):   2s02  2p03  3d00  4f00
Ground state valence configuration (from tables):   3s02  3p02  3d00  4f00
Ground state valence configuration (from tables):   2s02  2p04  3d00  4f00

---- Processing specs for species: H
Reading pseudopotential information in formatted form from:
  ../../../Pseudos/VW/H/H.psf

[...]

---- Processing specs for species: O
Reading pseudopotential information in formatted form from:
  ../../../Pseudos/VW/O/O.psf

---- Pseudopotential check for H

Pseudopotential generated from a fully relativistic atomic calculation
There are spin-orbit semi-local pseudopotentials available

Pseudized shells:
1s( 1.00) rc: 0.04
Valence configuration for ps generation: (assumed as above)

[...]

Pseudized shells:
2s( 2.00) rc: 1.00
2p( 3.00) rc: 1.04
3d( 0.00) rc: 2.87
Valence configuration for ps generation: (assumed as above)

[...]

Pseudized shells:
3s( 2.00) rc: 1.67
3p( 2.00) rc: 1.99
3d( 0.00) rc: 2.04
Valence configuration for ps generation: (assumed as above)

---- Pseudopotential check for O

Pseudopotential generated from a fully relativistic atomic calculation
There are spin-orbit semi-local pseudopotentials available

Pseudized shells:
2s( 2.00) rc: 0.89
2p( 4.00) rc: 1.03
3d( 0.00) rc: 1.64
Valence configuration for ps generation: (assumed as above)
For H, standard SIESTA heuristics set lmxkb to 2
 (one more than the basis l, including polarization orbitals).
Use PS.lmax or PS.KBprojectors blocks to override.
For N, standard SIESTA heuristics set lmxkb to 3
 (one more than the basis l, including polarization orbitals).
Use PS.lmax or PS.KBprojectors blocks to override.
For Si, standard SIESTA heuristics set lmxkb to 3
 (one more than the basis l, including polarization orbitals).
Use PS.lmax or PS.KBprojectors blocks to override.
For O, standard SIESTA heuristics set lmxkb to 3
 (one more than the basis l, including polarization orbitals).
Use PS.lmax or PS.KBprojectors blocks to override.
../../../Pseudos/VW/H/H.psf pseudopotential only contains V_ls up to l=0 -- lmxkb reset.
../../../Pseudos/VW/N/N.psf pseudopotential only contains V_ls up to l=2 -- lmxkb reset.
../../../Pseudos/VW/Si/Si.psf pseudopotential only contains V_ls up to l=2 -- lmxkb reset.
../../../Pseudos/VW/O/O.psf pseudopotential only contains V_ls up to l=2 -- lmxkb reset.

<basis_specs>
H                    Z=   1    Mass=  1.0080        Charge= 0.17977+309
Lmxo=1 Lmxkb= 0    BasisType=split      Semic=F
L=0  Nsemic=0  Cnfigmx=1
          i=1  nzeta=2  polorb=1  (1s)  (to be polarized perturbatively)
            splnorm:   0.62000
               vcte:    40.000
               rinn:  -0.90000
               qcoe:    0.0000
               qyuk:    0.0000
               qwid:   0.10000E-01
                rcs:    0.0000      0.0000
            lambdas:    1.0000      1.0000
L=1  Nsemic=0  Cnfigmx=2
          i=1  nzeta=0  polorb=0  (2p)  (perturbative polarization orbital) (from 1s)
</basis_specs>

Filter: Requested cutoff:  290.000000 Ry
Using PAO.SplitTailNorm
atom: Called for H                     (Z =   1)
NOTE: H pseudopotential has channels up to l= 0
NOTE: PAOs with higher l will be generated with V_local
Maximum radius (at nrval) set to   50.00000 8518

read_vps: Pseudopotential generation method:
read_vps: ATM4.2.7  Troullier-Martins
Valence charge in pseudo generation:    1.00000

xc_check: Exchange-correlation functional:
xc_check: VDW Dion-Rydberg-Schroeder-Langreth-Lundqvist
V l=0 = -2*Zval/r beyond r=  0.0399
All V_l potentials equal beyond r=  0.0399
This should be close to max(r_c) in ps generation
All pots = -2*Zval/r beyond r=  0.0399
Using small-core scheme (local charge) for Vlocal

VLOCAL_FROM_CHLOCAL: 99.0% of the norm of Vloc inside  27227.515 Ry
VLOCAL_FROM_CHLOCAL: 99.9% of the norm of Vloc inside  62052.012 Ry
atom: Maximum radius for chlocal:    0.04942
atom: Maximum radius for r*vlocal+2*Zval:    0.04228

KBgen: Kleinman-Bylander projectors:
GHOST: No ghost state for L =  0
KBproj: WARNING: Rc(0)=      0.3608
KBproj: WARNING: Cut off radius for the KB projector too small
   l= 0   rc=  0.360771   el= -0.503243   Ekb=-43.540856   kbcos= -0.003669

KBgen: Total number of Kleinman-Bylander projectors:   1
atom: -------------------------------------------------------------------------

atom: SANKEY-TYPE ORBITALS:
atom: Selected multiple-zeta basis: split

SPLIT: Orbitals with angular momentum L= 0

SPLIT: Basis orbitals for state 1s

SPLIT: PAO cut-off radius determined from an
SPLIT: energy shift=  0.005000 Ry
Split based on tail norm

   izeta = 1
                 lambda =    1.000000
                     rc =    5.772464
                 energy =   -0.497573
                kinetic =    0.983085
    potential(screened) =   -1.480658
       potential(ionic) =   -1.978266
PAO Filter: Cutoff used:  142.10 Ry
PAO Filter: diagnostic kin energy tol:    0.003000 Ry
PAO Filter: Nominal cutoff (before filtering):  117.93 Ry
Filter:    Number of eigenfunctions  of the
           filtering kernel (total, used)= 55 20

   izeta = 2
                 rmatch =    1.631860
              splitnorm =    0.620000
                 energy =    1.774382
                kinetic =    6.071357
    potential(screened) =   -4.296974
       potential(ionic) =   -4.727849
PAO Filter: Cutoff used:  142.10 Ry
PAO Filter: diagnostic kin energy tol:    0.003000 Ry
PAO Filter: Nominal cutoff (before filtering):  901.83 Ry
Filter:    Number of eigenfunctions  of the
           filtering kernel (total, used)= 23  5
*Note: V_local used for l= 1

** Using vlocal for PAOs with L= 1

POLgen: Perturbative polarization orbital with L=  1

POLgen: Polarization orbital for state 1s
*Note: V_local used for lpol= 1

** Using vlocal for PAOs with L= 1
Split based on tail norm

   izeta = 1
                     rc =    5.772464
                 energy =    0.609532
                kinetic =    1.250628
    potential(screened) =   -0.641096
       potential(ionic) =   -1.109550
PAO Filter: diagnostic kin energy tol:    0.003000 Ry
PAO Filter: Nominal cutoff (before filtering):   54.19 Ry
Filter:    Number of eigenfunctions  of the
           filtering kernel (total, used)= 55 20
atom: Total number of Sankey-type orbitals:  5

atm_pop: Valence configuration (for local Pseudopot. screening):
 1s( 1.00)
 2p( 0.00)
Vna: chval, zval:    1.00000   1.00000

Vna:  Cut-off radius for the neutral-atom potential:   5.772464
VNA Filter: diagnostic kinetic energy tol:    0.003000 Ry
VNA Filter: Nominal cutoff (before filtering):31865.46 Ry
VNA Filter: Cutoff used:   290.00 Ry
Filter:    Number of eigenfunctions  of the
           filtering kernel (total, used)= 74 30

atom: _________________________________________________________________________

<basis_specs>
N                    Z=   7    Mass=  14.007        Charge= 0.17977+309
Lmxo=2 Lmxkb= 2    BasisType=split      Semic=F
L=0  Nsemic=0  Cnfigmx=2
          i=1  nzeta=2  polorb=0  (2s)
            splnorm:   0.28000
               vcte:    40.000
               rinn:  -0.90000
               qcoe:    0.0000
               qyuk:    0.0000
               qwid:   0.10000E-01
                rcs:    0.0000      0.0000
            lambdas:    1.0000      1.0000
L=1  Nsemic=0  Cnfigmx=2
          i=1  nzeta=2  polorb=1  (2p)  (to be polarized perturbatively)
            splnorm:   0.28000
               vcte:    40.000
               rinn:  -0.90000
               qcoe:    0.0000
               qyuk:    0.0000
               qwid:   0.10000E-01
                rcs:    0.0000      0.0000
            lambdas:    1.0000      1.0000
L=2  Nsemic=0  Cnfigmx=3
          i=1  nzeta=0  polorb=0  (3d)  (perturbative polarization orbital) (from 2p)
L=0  Nkbl=1  erefs: 0.17977+309
L=1  Nkbl=1  erefs: 0.17977+309
L=2  Nkbl=1  erefs: 0.17977+309
</basis_specs>

Filter: Requested cutoff:  290.000000 Ry
Using PAO.SplitTailNorm
[...]
   scf:   14    -5463.159048    -5463.159048    -5463.159048  0.000000 -3.983319  0.000001
     spin moment: {S} , |S| = {   -0.00000   -0.00000   -0.00000 }     0.00000

[...]

        iscf     Eharris(eV)        E_KS(eV)     FreeEng(eV)     dDmax    Ef(eV) dHmax(eV)
   scf:    1    -5463.146896    -5463.160346    -5463.160346  0.004316 -3.970607  0.104547
     spin moment: {S} , |S| = {   -0.00000   -0.00000   -0.00000 }     0.00000
   scf:    2    -5463.121675    -5463.149105    -5463.149105  0.008403 -3.995543  0.364878
     spin moment: {S} , |S| = {   -0.00000   -0.00000   -0.00000 }     0.00000
   scf:    3    -5463.164123    -5463.161585    -5463.161585  0.006573 -3.977957  0.016094
     spin moment: {S} , |S| = {   -0.00000   -0.00000   -0.00000 }     0.00000
   scf:    4    -5463.161620    -5463.161606    -5463.161606  0.000120 -3.979452  0.006411
     spin moment: {S} , |S| = {   -0.00000   -0.00000   -0.00000 }     0.00000
   scf:    5    -5463.161611    -5463.161609    -5463.161609  0.000056 -3.979712  0.002151
     spin moment: {S} , |S| = {   -0.00000   -0.00000   -0.00000 }     0.00000
   scf:    6    -5463.161610    -5463.161609    -5463.161609  0.000035 -3.979764  0.000574
     spin moment: {S} , |S| = {   -0.00000   -0.00000   -0.00000 }     0.00000
   scf:    7    -5463.161609    -5463.161609    -5463.161609  0.000012 -3.979766  0.000276
     spin moment: {S} , |S| = {   -0.00000   -0.00000   -0.00000 }     0.00000
   scf:    8    -5463.161609    -5463.161609    -5463.161609  0.000011 -3.979776  0.000092
     spin moment: {S} , |S| = {   -0.00000   -0.00000   -0.00000 }     0.00000
   scf:    9    -5463.161609    -5463.161609    -5463.161609  0.000004 -3.979779  0.000038
     spin moment: {S} , |S| = {   -0.00000   -0.00000   -0.00000 }     0.00000
   scf:   10    -5463.161609    -5463.161609    -5463.161609  0.000002 -3.979777  0.000017
     spin moment: {S} , |S| = {   -0.00000   -0.00000   -0.00000 }     0.00000
   scf:   11    -5463.161609    -5463.161609    -5463.161609  0.000001 -3.979777  0.000003
     spin moment: {S} , |S| = {   -0.00000   -0.00000   -0.00000 }     0.00000
   scf:   12    -5463.161609    -5463.161609    -5463.161609  0.000000 -3.979776  0.000002
     spin moment: {S} , |S| = {   -0.00000   -0.00000   -0.00000 }     0.00000
   scf:   13    -5463.161609    -5463.161609    -5463.161609  0.000000 -3.979776  0.000001
     spin moment: {S} , |S| = {   -0.00000   -0.00000   -0.00000 }     0.00000

[...]

        iscf     Eharris(eV)        E_KS(eV)     FreeEng(eV)     dDmax    Ef(eV) dHmax(eV)
   scf:    1    -5463.159708    -5463.162216    -5463.162216  0.001174 -3.975134  0.029311
     spin moment: {S} , |S| = {   -0.00000   -0.00000   -0.00000 }     0.00000
   scf:    2    -5463.159207    -5463.161343    -5463.161343  0.002319 -3.982531  0.099222
     spin moment: {S} , |S| = {   -0.00000   -0.00000   -0.00000 }     0.00000
   scf:    3    -5463.162515    -5463.162314    -5463.162314  0.001805 -3.977684  0.004086
     spin moment: {S} , |S| = {   -0.00000   -0.00000   -0.00000 }     0.00000
   scf:    4    -5463.162317    -5463.162316    -5463.162316  0.000029 -3.978141  0.001653
     spin moment: {S} , |S| = {   -0.00000   -0.00000   -0.00000 }     0.00000
   scf:    5    -5463.162316    -5463.162316    -5463.162316  0.000014 -3.978233  0.000566
     spin moment: {S} , |S| = {   -0.00000   -0.00000   -0.00000 }     0.00000
   scf:    6    -5463.162316    -5463.162316    -5463.162316  0.000009 -3.978260  0.000162
     spin moment: {S} , |S| = {   -0.00000   -0.00000   -0.00000 }     0.00000
   scf:    7    -5463.162316    -5463.162316    -5463.162316  0.000003 -3.978262  0.000075
     spin moment: {S} , |S| = {   -0.00000   -0.00000   -0.00000 }     0.00000
   scf:    8    -5463.162316    -5463.162316    -5463.162316  0.000003 -3.978267  0.000023
     spin moment: {S} , |S| = {   -0.00000   -0.00000   -0.00000 }     0.00000
   scf:    9    -5463.162316    -5463.162316    -5463.162316  0.000001 -3.978267  0.000013
     spin moment: {S} , |S| = {   -0.00000   -0.00000   -0.00000 }     0.00000
   scf:   10    -5463.162316    -5463.162316    -5463.162316  0.000001 -3.978267  0.000006
     spin moment: {S} , |S| = {   -0.00000   -0.00000   -0.00000 }     0.00000
   scf:   11    -5463.162316    -5463.162316    -5463.162316  0.000000 -3.978267  0.000002
     spin moment: {S} , |S| = {   -0.00000   -0.00000   -0.00000 }     0.00000
   scf:   12    -5463.162316    -5463.162316    -5463.162316  0.000000 -3.978267  0.000001
     spin moment: {S} , |S| = {   -0.00000   -0.00000   -0.00000 }     0.00000

[...]

        iscf     Eharris(eV)        E_KS(eV)     FreeEng(eV)     dDmax    Ef(eV) dHmax(eV)
   scf:    1    -5463.161368    -5463.162307    -5463.162307  0.000208 -3.977918  0.009377
     spin moment: {S} , |S| = {   -0.00000   -0.00000   -0.00000 }     0.00000
   scf:    2    -5463.162208    -5463.162278    -5463.162278  0.000425 -3.977614  0.033283
     spin moment: {S} , |S| = {   -0.00000   -0.00000   -0.00000 }     0.00000
   scf:    3    -5463.162317    -5463.162310    -5463.162310  0.000330 -3.977896  0.000761
     spin moment: {S} , |S| = {   -0.00000   -0.00000   -0.00000 }     0.00000
   scf:    4    -5463.162310    -5463.162310    -5463.162310  0.000007 -3.977921  0.000312
     spin moment: {S} , |S| = {   -0.00000   -0.00000   -0.00000 }     0.00000
   scf:    5    -5463.162310    -5463.162310    -5463.162310  0.000005 -3.977933  0.000061
     spin moment: {S} , |S| = {   -0.00000   -0.00000   -0.00000 }     0.00000
   scf:    6    -5463.162310    -5463.162310    -5463.162310  0.000001 -3.977933  0.000034
     spin moment: {S} , |S| = {   -0.00000   -0.00000   -0.00000 }     0.00000
   scf:    7    -5463.162310    -5463.162310    -5463.162310  0.000001 -3.977933  0.000014
     spin moment: {S} , |S| = {   -0.00000   -0.00000   -0.00000 }     0.00000
   scf:    8    -5463.162310    -5463.162310    -5463.162310  0.000001 -3.977933  0.000004
     spin moment: {S} , |S| = {   -0.00000   -0.00000   -0.00000 }     0.00000
   scf:    9    -5463.162310    -5463.162310    -5463.162310  0.000000 -3.977933  0.000002
     spin moment: {S} , |S| = {   -0.00000   -0.00000   -0.00000 }     0.00000
   scf:   10    -5463.162310    -5463.162310    -5463.162310  0.000000 -3.977933  0.000001
     spin moment: {S} , |S| = {   -0.00000   -0.00000   -0.00000 }     0.00000
   scf:   11    -5463.162310    -5463.162310    -5463.162310  0.000000 -3.977933  0.000000
     spin moment: {S} , |S| = {   -0.00000   -0.00000   -0.00000 }     0.00000

[...]

                        Begin Broyden opt. move =    124

outcoor: Atomic coordinates (Ang):
    5.49869820   -6.72869379    0.00000000   1       1  H
    4.48041700   -6.50312059    0.00000000   2       2  N
    3.20724997   -7.73965486    0.00000000   3       3  Si
    3.70275708   -9.12952459    0.00000000   1       4  H
    1.61893474   -7.23710390    0.00000000   2       5  N
    1.60862386   -5.46691202    0.00000000   3       6  Si
    0.40340399   -3.58957842    0.00000000   3       7  Si
   -1.08421453   -3.10453964    0.00000000   4       8  O
    1.65332540   -2.21127003    0.00000000   2       9  N
    1.07281082   -1.33805215    0.00000000   1      10  H
    3.38907800   -2.09604318    0.00000000   3      11  Si
    4.07422038   -0.51194069    0.00000000   2      12  N
    3.53094717    0.37685883    0.00000000   1      13  H
    5.11673355   -0.41387678    0.00000000   1      14  H
    4.48540435   -3.35495346    0.00000000   2      15  N
    3.71405474   -4.87406224    0.00000000   3      16  Si

outcell: Unit cell vectors (Ang):
       13.438530    0.000000    0.000000
        0.000000   17.285978    0.000000
        0.000000    0.000000    8.754136

outcell: Cell vector modules (Ang)   :   13.438530   17.285978    8.754136
outcell: Cell angles (23,13,12) (deg):     90.0000     90.0000     90.0000
outcell: Cell volume (Ang**3)        :   2033.5695
<dSpData1D:S at geom step 124
  <sparsity:sparsity for geom step 124
    nrows_g=168 nrows=10 sparsity=.0560 nnzs=1580, refcount: 8>
  <dData1D:(new from dSpData1D) n=1580, refcount: 1>
refcount: 1>
new_DM -- step:   125
Re-using DM from previous geometries...
Number of DMs in history: 1
 DM extrapolation coefficients:
1   1.00000
New DM after history re-use:
<dSpData2D:SpM extrapolated using coords
  <sparsity:sparsity for geom step 124
    nrows_g=168 nrows=10 sparsity=.0560 nnzs=1580, refcount: 10>
  <dData2D:(temp array for extrapolation) n=1580 m=8, refcount: 1>
refcount: 1>
     spin moment: {S} , |S| = {   -0.00000   -0.00000   -0.00000 }     0.00000

InitMesh: MESH = 144 x 192 x 96 = 2654208
InitMesh: Mesh cutoff (required, used) =   300.000   317.339 Ry
New grid distribution [1]: sub = 2
New grid distribution [2]: sub = 2
New grid distribution [3]: sub = 2
Setting up quadratic distribution...

        iscf     Eharris(eV)        E_KS(eV)     FreeEng(eV)     dDmax    Ef(eV) dHmax(eV)
   scf:    1    -5463.162902    -5463.162330    -5463.162330  0.000083 -3.978031  0.003462
     spin moment: {S} , |S| = {   -0.00000   -0.00000   -0.00000 }     0.00000
   scf:    2    -5463.162316    -5463.162326    -5463.162326  0.000151 -3.977710  0.012709
     spin moment: {S} , |S| = {   -0.00000   -0.00000   -0.00000 }     0.00000
   scf:    3    -5463.162331    -5463.162330    -5463.162330  0.000120 -3.977900  0.000415
     spin moment: {S} , |S| = {   -0.00000   -0.00000   -0.00000 }     0.00000
   scf:    4    -5463.162330    -5463.162330    -5463.162330  0.000003 -3.977863  0.000136
     spin moment: {S} , |S| = {   -0.00000   -0.00000   -0.00000 }     0.00000
   scf:    5    -5463.162330    -5463.162330    -5463.162330  0.000001 -3.977853  0.000043
     spin moment: {S} , |S| = {   -0.00000   -0.00000   -0.00000 }     0.00000
   scf:    6    -5463.162330    -5463.162330    -5463.162330  0.000001 -3.977849  0.000012
     spin moment: {S} , |S| = {   -0.00000   -0.00000   -0.00000 }     0.00000
   scf:    7    -5463.162330    -5463.162330    -5463.162330  0.000000 -3.977848  0.000005
     spin moment: {S} , |S| = {   -0.00000   -0.00000   -0.00000 }     0.00000
   scf:    8    -5463.162330    -5463.162330    -5463.162330  0.000000 -3.977847  0.000001
     spin moment: {S} , |S| = {   -0.00000   -0.00000   -0.00000 }     0.00000
   scf:    9    -5463.162330    -5463.162330    -5463.162330  0.000000 -3.977847  0.000001
     spin moment: {S} , |S| = {   -0.00000   -0.00000   -0.00000 }     0.00000

SCF Convergence by DM+H criterion
max |DM_out - DM_in|         :     0.0000000635
max |H_out - H_in|      (eV) :     0.0000005068
SCF cycle converged after 9 iterations

Using DM_out to compute the final energy and forces

siesta: E_KS(eV) =            -5463.1623
     spin moment: {S} , |S| = {   -0.00000   -0.00000   -0.00000 }     0.00000

siesta: Atomic forces (eV/Ang):
     1    0.001746   -0.000565    0.000000
     2   -0.002456   -0.001371    0.000000
     3   -0.000227   -0.001167   -0.000000
     4   -0.001255   -0.001718    0.000000
     5   -0.000062    0.000284    0.000000
     6   -0.080993   -0.081051    0.000000
     7   -0.002956   -0.002982   -0.000000
     8   -0.000554   -0.001135    0.000000
     9    0.000172   -0.003439    0.000000
    10    0.000553   -0.002428    0.000000
    11    0.000828   -0.002791   -0.000000
    12   -0.002016   -0.002976   -0.000000
    13    0.007571   -0.004890    0.000000
    14    0.001465   -0.003052    0.000000
    15    0.003321   -0.002575    0.000000
    16    0.001146   -0.001564   -0.000000
   Tot   -0.073718   -0.113422    0.000000
   Max    0.081051
   Res    0.016658    sqrt( Sum f_i^2 / 3N )
   Max    0.007571    constrained

Stress tensor Voigt[x,y,z,yz,xz,xy] (kbar):        0.05        0.13       -0.00       -0.00       -0.00       -0.20
(Free)E + p*V (eV/cell)    -5463.2377
Target enthalpy (eV/cell)    -5463.1623

outcoor: Relaxed atomic coordinates (Ang):
    5.49869820   -6.72869379    0.00000000   1       1  H
    4.48041700   -6.50312059    0.00000000   2       2  N
    3.20724997   -7.73965486    0.00000000   3       3  Si
    3.70275708   -9.12952459    0.00000000   1       4  H
    1.61893474   -7.23710390    0.00000000   2       5  N
    1.60862386   -5.46691202    0.00000000   3       6  Si
    0.40340399   -3.58957842    0.00000000   3       7  Si
   -1.08421453   -3.10453964    0.00000000   4       8  O
    1.65332540   -2.21127003    0.00000000   2       9  N
    1.07281082   -1.33805215    0.00000000   1      10  H
    3.38907800   -2.09604318    0.00000000   3      11  Si
    4.07422038   -0.51194069    0.00000000   2      12  N
    3.53094717    0.37685883    0.00000000   1      13  H
    5.11673355   -0.41387678    0.00000000   1      14  H
    4.48540435   -3.35495346    0.00000000   2      15  N
    3.71405474   -4.87406224    0.00000000   3      16  Si

siesta: Program's energy decomposition (eV):
siesta: Ebs     =      -661.956429
siesta: Eions   =      5529.398135
siesta: Ena     =       946.380975
siesta: Ekin    =      1624.127077
siesta: Enl(+so)=     -1118.181348
siesta: Eso(nil)=         0.000000
siesta: Edftu   =         0.000000
siesta: DEna    =        10.505193
siesta: DUscf   =         7.194965
siesta: DUext   =         0.000000
siesta: Ex      =     -1286.474695
siesta: Ec      =      -117.316363
siesta: Exc     =     -1403.791058
siesta: EbV     =         0.000000
siesta: eta*DQ  =         0.000000
siesta: Emadel  =         0.000000
siesta: Emeta   =         0.000000
siesta: Emolmec =         0.000000
siesta: Ekinion =         0.000000
siesta: Eharris =     -5463.162330
siesta: Etot    =     -5463.162330
siesta: FreeEng =     -5463.162330

siesta: Final energy (eV):
siesta:  Band Struct. =    -661.956429
siesta:       Kinetic =    1624.127077
siesta:       Hartree =    3897.547252
siesta:         Edftu =       0.000000
siesta:      Eso(nil) =       0.000000
siesta:    Ext. field =       0.000000
siesta:         Exch. =   -1286.474695
siesta:         Corr. =    -117.316363
siesta:     Bulk bias =       0.000000
siesta:   Exch.-corr. =   -1403.791058
siesta:  Ion-electron =   -9213.811535
siesta:       Ion-ion =    -367.234067
siesta:       Ekinion =       0.000000
siesta: D3 dispersion =       0.000000
siesta:         Total =   -5463.162330
siesta:         Fermi =      -3.977847

siesta: Atomic forces (eV/Ang):
siesta:      1    0.001746   -0.000565    0.000000
siesta:      2   -0.002456   -0.001371    0.000000
siesta:      3   -0.000227   -0.001167   -0.000000
siesta:      4   -0.001255   -0.001718    0.000000
siesta:      5   -0.000062    0.000284    0.000000
siesta:      6   -0.080993   -0.081051    0.000000
siesta:      7   -0.002956   -0.002982   -0.000000
siesta:      8   -0.000554   -0.001135    0.000000
siesta:      9    0.000172   -0.003439    0.000000
siesta:     10    0.000553   -0.002428    0.000000
siesta:     11    0.000828   -0.002791   -0.000000
siesta:     12   -0.002016   -0.002976   -0.000000
siesta:     13    0.007571   -0.004890    0.000000
siesta:     14    0.001465   -0.003052    0.000000
siesta:     15    0.003321   -0.002575    0.000000
siesta:     16    0.001146   -0.001564   -0.000000
siesta: ----------------------------------------
siesta:    Tot   -0.073718   -0.113422    0.000000

siesta: Stress tensor (static) (eV/Ang**3):
siesta:     0.000030   -0.000123   -0.000000
siesta:    -0.000123    0.000084   -0.000000
siesta:    -0.000000   -0.000000   -0.000003

siesta: Cell volume =       2033.569457 Ang**3

siesta: Pressure (static):
siesta:                Solid            Molecule  Units
siesta:          -0.00000040         -0.00000076  Ry/Bohr**3
siesta:          -0.00003707         -0.00006964  eV/Ang**3
siesta:          -0.05940043         -0.11158210  kBar
(Free)E+ p_basis*V_orbitals  =       -5455.165118
(Free)Eharris+ p_basis*V_orbitals  =       -5455.165118
     spin moment: {S} , |S| = {   -0.00000   -0.00000   -0.00000 }     0.00000

siesta: Electric dipole (a.u.)  =    3.147039    0.854428    0.000000
siesta: Electric dipole (Debye) =    7.998976    2.171740    0.000000

cite: Please see "Guanine.bib" for an exhaustive BiBTeX file.
cite: Please clearly indicate Siesta version in published work: 5.1-MaX-41-g6ad11e234
cite: This calculation has made use of the following articles
cite: which are encouraged to be cited in a published work.
        Primary SIESTA paper
          DOI: www.doi.org/10.1088/0953-8984/14/11/302
        Spin-orbit coupling (off-site approximation)
          DOI: www.doi.org/10.1088/0953-8984/24/8/086005
        ELPA library
          DOI: www.doi.org/10.1088/0953-8984/26/21/213201

>> End of run:  11-OCT-2024  22:54:50
Job completed