>> Start of run:  22-MAY-2023  10:03:55

reinit: Reading from standard input
reinit: Dumped input in INPUT_TMP.38802
************************** Dump of input data file ****************************
SystemLabel      AT
NumberOfAtoms    30
NumberOfSpecies  4
%block ChemicalSpeciesLabel
    1    1  H
    2    7  N
    3   14  Si
    4    8  O
%endblock ChemicalSpeciesLabel
# Single point calculation
MD.TypeOfRun                CG
MD.Steps                    0
SCF.MustConverge            F # In case it does not. There can be 2 very close atoms
AtomicCoordinatesFormat NotScaledCartesianAng
%block AtomicCoordinatesAndAtomicSpecies
2.582377650    -5.776830440   0.000000000       1
1.654759240    -5.269361980   0.000000000       2
0.063128840    -6.101704590   0.000000000       3
0.119223240    -7.596849500   0.000000000       1
-1.376892050   -5.182603740   0.000000000       2
-0.824371900   -3.460866440   0.000000000       3
-1.170571480   -1.270002100   0.000000000       3
-2.706933680   -0.417515780   0.000000000       2
-2.754569660   0.634858620    0.000000000       1
-3.637675640   -0.909967860   0.000000000       1
0.218091790    -0.234193970   0.000000000       2
1.872004100    -0.697162300   0.000000000       3
2.828001130    0.461464770    0.000000000       1
2.648150080    -2.255024470   0.000000000       2
1.391921380    -3.454727220   0.000000000       3
1.874045924    6.234551491    0.000000000       2
0.546674404    7.444755791    0.000000000       3
1.186675674    8.806074031    0.000000000       1
-1.539071536   6.774224441    0.000000000       3
-3.568634136   7.904340631    0.000000000       3
-3.414398366   9.064570841    0.940305280       1
-4.554568856   6.882420011    0.512613700       1
-3.984849096   8.380566481    -1.366678340      1
-1.472576116   4.500247821    0.000000000       3
-2.511624846   3.307188321    0.000000000       4
0.184415464    3.866272631    0.000000000       2
0.166398094    2.803827801    0.000000000       1
1.808018534    4.463342841    0.000000000       3
3.003034704    3.448917641    0.000000000       4
2.874083294    6.580058591    0.000000000       1
%endblock AtomicCoordinatesAndAtomicSpecies
%include ../../../Defaults.fdf
************************** End of input data file *****************************

reinit: -----------------------------------------------------------------------
reinit: System Name:
reinit: -----------------------------------------------------------------------
reinit: System Label: AT
reinit: -----------------------------------------------------------------------

initatom: Reading input for the pseudopotentials and atomic orbitals ----------
Species number:   1 Atomic number:    1 Label: H
Species number:   2 Atomic number:    7 Label: N
Species number:   3 Atomic number:   14 Label: Si
Species number:   4 Atomic number:    8 Label: O

Ground state valence configuration:   1s01
Reading pseudopotential information in formatted form from H.psf

Pseudopotential generated from a relativistic atomic calculation

Valence configuration for pseudopotential generation:
1s( 1.00) rc: 0.01
2p( 0.00) rc: 0.60
3d( 0.00) rc: 1.99
4f( 0.00) rc: 2.49
Ground state valence configuration:   2s02  2p03
Reading pseudopotential information in formatted form from N.psf

[...]

Valence configuration for pseudopotential generation:
3s( 2.00) rc: 1.67
3p( 2.00) rc: 2.04
3d( 0.00) rc: 2.89
4f( 0.00) rc: 2.49
Ground state valence configuration:   2s02  2p04
Reading pseudopotential information in formatted form from O.psf

Pseudopotential generated from a relativistic atomic calculation

Valence configuration for pseudopotential generation:
2s( 2.00) rc: 0.45
2p( 4.00) rc: 0.92
3d( 0.00) rc: 2.24
4f( 0.00) rc: 0.25
For H, standard SIESTA heuristics set lmxkb to 2
 (one more than the basis l, including polarization orbitals).
Use PS.lmax or PS.KBprojectors blocks to override.
For N, standard SIESTA heuristics set lmxkb to 3
 (one more than the basis l, including polarization orbitals).
Use PS.lmax or PS.KBprojectors blocks to override.
For Si, standard SIESTA heuristics set lmxkb to 3
 (one more than the basis l, including polarization orbitals).
Use PS.lmax or PS.KBprojectors blocks to override.
For O, standard SIESTA heuristics set lmxkb to 3
 (one more than the basis l, including polarization orbitals).
Use PS.lmax or PS.KBprojectors blocks to override.

<basis_specs>
H                    Z=   1    Mass=  1.0100        Charge= 0.17977+309
Lmxo=0 Lmxkb= 2    BasisType=split      Semic=F
L=0  Nsemic=0  Cnfigmx=1
          i=1  nzeta=2  polorb=1  (1s)
            splnorm:   0.62000
               vcte:    0.0000
               rinn:    0.0000
               qcoe:    0.0000
               qyuk:    0.0000
               qwid:   0.10000E-01
                rcs:    0.0000      0.0000
            lambdas:    1.0000      1.0000
L=0  Nkbl=1  erefs: 0.17977+309
L=1  Nkbl=1  erefs: 0.17977+309
L=2  Nkbl=1  erefs: 0.17977+309
</basis_specs>

atom: Called for H                     (Z =   1)

read_vps: Pseudopotential generation method:
read_vps: ATM4.2.7  Troullier-Martins
Valence charge for ps generation:    1.00000

xc_check: Exchange-correlation functional:
xc_check: GGA Perdew, Burke & Ernzerhof 1996
V l=0 = -2*Zval/r beyond r=  0.0098
V l=1 = -2*Zval/r beyond r=  0.5817
V l=2 = -2*Zval/r beyond r=  1.9372
All V_l potentials equal beyond r=  1.9372
This should be close to max(r_c) in ps generation
All pots = -2*Zval/r beyond r=  1.9372

VLOCAL1: 99.0% of the norm of Vloc inside     11.567 Ry
VLOCAL1: 99.9% of the norm of Vloc inside     26.362 Ry
atom: Maximum radius for 4*pi*r*r*local-pseudopot. charge    2.25106
atom: Maximum radius for r*vlocal+2*Zval:    1.91306
GHOST: No ghost state for L =  0
GHOST: No ghost state for L =  1
GHOST: No ghost state for L =  2

KBgen: Kleinman-Bylander projectors:
   l= 0   rc=  2.036604   el= -0.477180   Ekb= -6.081590   kbcos= -0.277285
   l= 1   rc=  2.195416   el=  0.001076   Ekb= -0.926943   kbcos= -0.034643
   l= 2   rc=  2.251056   el=  0.002010   Ekb= -0.130941   kbcos= -0.009788

KBgen: Total number of Kleinman-Bylander projectors:    9
atom: -------------------------------------------------------------------------

atom: SANKEY-TYPE ORBITALS:
atom: Selected multiple-zeta basis: split

SPLIT: Orbitals with angular momentum L= 0

SPLIT: Basis orbitals for state 1s

SPLIT: PAO cut-off radius determined from an
SPLIT: energy shift=  0.002000 Ry

   izeta = 1
                 lambda =    1.000000
                     rc =    6.518340
                 energy =   -0.475305
                kinetic =    0.912139
    potential(screened) =   -1.387444
       potential(ionic) =   -1.907295

   izeta = 2
                 rmatch =    2.141150
              splitnorm =    0.620000
                 energy =    0.566467
                kinetic =    3.772856
    potential(screened) =   -3.206389
       potential(ionic) =   -3.759093

POLgen: Perturbative polarization orbital with L=  1

POLgen: Polarization orbital for state 1s

   izeta = 1
                     rc =    6.518340
                 energy =    0.533861
                kinetic =    1.121086
    potential(screened) =   -0.587225
       potential(ionic) =   -1.053027
atom: Total number of Sankey-type orbitals:  5

atm_pop: Valence configuration (for local Pseudopot. screening):
 1s( 1.00)
Vna: chval, zval:    1.00000   1.00000

Vna:  Cut-off radius for the neutral-atom potential:   6.518340

atom: _________________________________________________________________________

<basis_specs>
N                    Z=   7    Mass=  14.010        Charge= 0.17977+309
Lmxo=1 Lmxkb= 3    BasisType=split      Semic=F
L=0  Nsemic=0  Cnfigmx=2
          i=1  nzeta=2  polorb=0  (2s)
            splnorm:   0.28000
               vcte:    0.0000
               rinn:    0.0000
               qcoe:    0.0000
               qyuk:    0.0000
               qwid:   0.10000E-01
                rcs:    0.0000      0.0000
            lambdas:    1.0000      1.0000
L=1  Nsemic=0  Cnfigmx=2
          i=1  nzeta=2  polorb=1  (2p)
            splnorm:   0.28000
               vcte:    0.0000
               rinn:    0.0000
               qcoe:    0.0000
               qyuk:    0.0000
               qwid:   0.10000E-01
                rcs:    0.0000      0.0000
            lambdas:    1.0000      1.0000
L=0  Nkbl=1  erefs: 0.17977+309
L=1  Nkbl=1  erefs: 0.17977+309
L=2  Nkbl=1  erefs: 0.17977+309
L=3  Nkbl=1  erefs: 0.17977+309
</basis_specs>

[...]

KBgen: Kleinman-Bylander projectors:
   l= 0   rc=  3.417763   el= -1.365098   Ekb= -4.433130   kbcos= -0.707855
   l= 1   rc=  3.375302   el= -0.521201   Ekb=-13.264039   kbcos= -0.535594
   l= 2   rc=  3.872880   el=  0.001991   Ekb= -0.641094   kbcos= -0.062456
   l= 3   rc=  3.970931   el=  0.003093   Ekb= -0.474517   kbcos= -0.018236

[...]

SPLIT: Basis orbitals for state 2p

[...]

POLgen: Polarization orbital for state 2p

[...]

atm_pop: Valence configuration (for local Pseudopot. screening):
 2s( 2.00)
 2p( 3.00)
Vna: chval, zval:    5.00000   5.00000

[...]

KBgen: Kleinman-Bylander projectors:
   l= 0   rc=  3.075247   el= -0.794092   Ekb=  5.879390   kbcos=  0.167461
   l= 1   rc=  3.153101   el= -0.300068   Ekb=  2.642817   kbcos=  0.058301
   l= 2   rc=  3.273594   el=  0.001958   Ekb= -1.185135   kbcos= -0.104411
   l= 3   rc=  3.232927   el=  0.003046   Ekb= -0.497174   kbcos= -0.015889

[...]

<basis_specs>
O                    Z=   8    Mass=  16.000        Charge= 0.17977+309
Lmxo=1 Lmxkb= 3    BasisType=split      Semic=F
L=0  Nsemic=0  Cnfigmx=2
          i=1  nzeta=2  polorb=0  (2s)
            splnorm:   0.28000
               vcte:    0.0000
               rinn:    0.0000
               qcoe:    0.0000
               qyuk:    0.0000
               qwid:   0.10000E-01
                rcs:    0.0000      0.0000
            lambdas:    1.0000      1.0000
L=1  Nsemic=0  Cnfigmx=2
          i=1  nzeta=2  polorb=1  (2p)
            splnorm:   0.28000
               vcte:    0.0000
               rinn:    0.0000
               qcoe:    0.0000
               qyuk:    0.0000
               qwid:   0.10000E-01
                rcs:    0.0000      0.0000
            lambdas:    1.0000      1.0000
L=0  Nkbl=1  erefs: 0.17977+309
L=1  Nkbl=1  erefs: 0.17977+309
L=2  Nkbl=1  erefs: 0.17977+309
L=3  Nkbl=1  erefs: 0.17977+309
</basis_specs>

atom: Called for O                     (Z =   8)

read_vps: Pseudopotential generation method:
read_vps: ATM4.2.7  Troullier-Martins
Valence charge for ps generation:    6.00000

xc_check: Exchange-correlation functional:
xc_check: GGA Perdew, Burke & Ernzerhof 1996
V l=0 = -2*Zval/r beyond r=  1.1000
V l=1 = -2*Zval/r beyond r=  1.1000
V l=2 = -2*Zval/r beyond r=  2.2154
V l=3 = -2*Zval/r beyond r=  1.1000
All V_l potentials equal beyond r=  2.2154
This should be close to max(r_c) in ps generation
All pots = -2*Zval/r beyond r=  2.2154

VLOCAL1: 99.0% of the norm of Vloc inside      8.845 Ry
VLOCAL1: 99.9% of the norm of Vloc inside     20.157 Ry
atom: Maximum radius for 4*pi*r*r*local-pseudopot. charge    2.67231
atom: Maximum radius for r*vlocal+2*Zval:    2.32897
GHOST: No ghost state for L =  0
[...]
     spin moment: S , {S} =    0.00000   0.00000  -0.00000   0.00000
   scf:   33    -3998.999735    -3998.999735    -3998.999949  0.000000 -3.978232  0.000001
     spin moment: S , {S} =    0.00000   0.00000  -0.00000   0.00000
   scf:   34    -3998.999735    -3998.999735    -3998.999949  0.000000 -3.978232  0.000001
     spin moment: S , {S} =    0.00000   0.00000  -0.00000   0.00000

SCF Convergence by DM+H criterion
max |DM_out - DM_in|         :     0.0000001308
max |H_out - H_in|      (eV) :     0.0000009376
SCF cycle converged after 34 iterations

Using DM_out to compute the final energy and forces
No. of atoms with KB's overlaping orbs in proc 0. Max # of overlaps:      24     177

siesta: E_KS(eV) =            -3998.9997

siesta: E_KS - E_eggbox =     -3998.9997
     spin moment: S , {S} =    0.00000   0.00000  -0.00000   0.00000

siesta: Atomic forces (eV/Ang):
     1   -0.043062    0.058977    0.000002
     2   -0.007986   -0.053076   -0.000003
     3    0.003837    0.044707    0.000001
     4   -0.021640    0.002022    0.000003
     5    0.009856   -0.037936   -0.000006
     6    0.062522    0.005484    0.000013
     7   -0.299966    0.156361    0.000024
     8    0.137127   -0.140763   -0.000114
     9    0.065806    0.189752    0.000192
    10    0.131422    0.064642    0.000019
    11   -0.008004    0.092405   -0.000036
    12    0.198624    0.107668   -0.000008
    13   -0.169003   -0.131721   -0.000004
    14   -0.005020   -0.122820    0.000008
    15   -0.000036    0.057707   -0.000005
    16    0.012755    0.102390    0.008010
    17    0.019706   -0.065386   -0.039895
    18   -0.099393    0.087806    0.008344
    19   -0.034092    0.021409   -0.041280
    20    0.041699   -0.044471    0.024648
    21   -0.157228    0.210220    0.067132
    22   -0.041973    0.050137    0.028405
    23    0.091704   -0.009214   -0.047466
    24    0.198047   -0.109675   -0.026497
    25   -1.971523    4.467221    0.002918
    26   -0.014831    0.121004    0.006728
    27    0.077438   -0.376271    0.002830
    28   -0.083058   -0.149528   -0.000861
    29   -1.822546   -3.245058   -0.001087
    30    0.094443    0.131708    0.008227
   Tot   -3.634375    1.485702    0.000242
   Max    4.467221
   Res    0.653636    sqrt( Sum f_i^2 / 3N )
   Max    4.467221    constrained

Stress tensor Voigt[x,y,z,yz,xz,xy] (kbar):       -1.76       -0.09       -0.21       -0.05        0.05        0.30
(Free)E + p*V (eV/cell)    -3997.1995
Target enthalpy (eV/cell)    -3998.9999

mulliken: Atomic and Orbital Populations:

Species: H

Atom      Orb        Charge      Spin       Svec
    1  3 2Ppy       0.02805   0.00000     -0.000   0.000   0.000
    1  4 2Ppz       0.04008   0.00000      0.000  -0.000   0.000
    1  5 2Ppx       0.02514   0.00000     -0.000   0.000   0.000
    1     Total     0.79071   0.00000     -0.000   0.000   0.000

    4  3 2Ppy       0.03898   0.00000     -0.000  -0.000   0.000
    4  4 2Ppz       0.02001   0.00000     -0.000  -0.000   0.000
    4  5 2Ppx       0.01357   0.00000      0.000  -0.000  -0.000
    4     Total     1.19203   0.00000      0.000   0.000  -0.000

[...]

   30  3 2Ppy       0.02701   0.00000     -0.000  -0.000   0.000
   30  4 2Ppz       0.03446   0.00000     -0.000  -0.000  -0.000
   30  5 2Ppx       0.02347   0.00000      0.000  -0.000   0.000
   30     Total     0.75850   0.00000     -0.000  -0.000   0.000

Total              10.94181   0.00000     -0.000   0.000  -0.000

[...]

Atom      Orb        Charge      Spin       Svec
    2  9 3Pdxy      0.00677   0.00000     -0.000   0.000  -0.000
    2 10 3Pdyz      0.00608   0.00000      0.000  -0.000  -0.000
    2 11 3Pdz2      0.00153   0.00000      0.000  -0.000   0.000
    2 12 3Pdxz      0.00304   0.00000      0.000  -0.000   0.000
    2 13 3Pdx2-y2   0.00297   0.00000     -0.000  -0.000  -0.000
    2     Total     5.52879   0.00000     -0.000   0.000  -0.000

    5  9 3Pdxy      0.00854   0.00000      0.000  -0.000  -0.000
    5 10 3Pdyz      0.00704   0.00000     -0.000   0.000   0.000
    5 11 3Pdz2      0.00189   0.00000     -0.000  -0.000   0.000
    5 12 3Pdxz      0.01128   0.00000      0.000  -0.000   0.000
    5 13 3Pdx2-y2   0.00919   0.00000      0.000  -0.000  -0.000
    5     Total     5.37796   0.00000      0.000   0.000  -0.000

[...]

Atom      Orb        Charge      Spin       Svec
    3  9 3Pdxy      0.10845   0.00000     -0.000   0.000  -0.000
    3 10 3Pdyz      0.05230   0.00000      0.000   0.000   0.000
    3 11 3Pdz2      0.01018   0.00000     -0.000   0.000  -0.000
    3 12 3Pdxz      0.13319   0.00000     -0.000   0.000   0.000
    3 13 3Pdx2-y2   0.32457   0.00000     -0.000   0.000   0.000
    3     Total     3.46714   0.00000      0.000  -0.000   0.000

[...]

   15  3 3py       -0.02990   0.00000      0.000  -0.000  -0.000
   15  9 3Pdxy      0.14165   0.00000      0.000  -0.000  -0.000
   15 10 3Pdyz      0.12593   0.00000     -0.000  -0.000  -0.000
   15 11 3Pdz2      0.01404   0.00000      0.000  -0.000  -0.000
   15 12 3Pdxz      0.12521   0.00000     -0.000  -0.000   0.000
   15 13 3Pdx2-y2   0.30331   0.00000      0.000   0.000  -0.000
   15     Total     3.62449   0.00000     -0.000  -0.000  -0.000

[...]

Species: O

Atom      Orb        Charge      Spin       Svec
   25  7 2pz       -0.00275   0.00000      0.000  -0.000   0.000
   25  9 3Pdxy      0.00691   0.00000     -0.000   0.000  -0.000
   25 10 3Pdyz      0.00591   0.00000     -0.000  -0.000  -0.000
   25 11 3Pdz2      0.00120   0.00000     -0.000   0.000  -0.000
   25 12 3Pdxz      0.00429   0.00000     -0.000  -0.000  -0.000
   25 13 3Pdx2-y2   0.00713   0.00000     -0.000   0.000  -0.000
   25     Total     6.47349   0.00000      0.000   0.000   0.000

   29  9 3Pdxy      0.00807   0.00000     -0.000  -0.000   0.000
   29 10 3Pdyz      0.00480   0.00000      0.000   0.000  -0.000
   29 11 3Pdz2      0.00132   0.00000     -0.000   0.000   0.000
   29 12 3Pdxz      0.00623   0.00000      0.000  -0.000  -0.000
   29 13 3Pdx2-y2   0.00795   0.00000     -0.000  -0.000  -0.000
   29     Total     6.46154   0.00000     -0.000   0.000   0.000

Total              98.00000   0.00000      0.000  -0.000   0.000

siesta: Eigenvalues (eV):
ik =     1
  -22.9550  -22.9550  -22.6269  -22.6269  -22.0022  -22.0022  -21.2309  -21.2309  -20.9937  -20.9937
  -20.5797  -20.5797  -19.3998  -19.3998  -19.2177  -19.2177  -18.6200  -18.6200  -15.3457  -15.3457
  -14.4033  -14.4033  -13.6777  -13.6777  -13.5837  -13.5837  -13.3242  -13.3242  -12.8858  -12.8858
  -12.4430  -12.4430  -12.0452  -12.0452  -11.8719  -11.8719  -11.4735  -11.4735  -11.4235  -11.4235
  -10.8449  -10.8449  -10.7802  -10.7802  -10.1648  -10.1648   -9.8745   -9.8745   -9.5998   -9.5998
   -9.3876   -9.3876   -9.1925   -9.1925   -9.0875   -9.0875   -8.8115   -8.8115   -8.7575   -8.7575
   -8.4570   -8.4570   -8.1443   -8.1443   -8.1164   -8.1164   -8.0937   -8.0937   -8.0551   -8.0551
   -7.8909   -7.8909   -7.3605   -7.3605   -7.3152   -7.3152   -7.3028   -7.3028   -6.8615   -6.8615
   -6.6982   -6.6982   -6.6846   -6.6846   -6.4653   -6.4653   -6.3359   -6.3359   -6.1409   -6.1409
   -5.9827   -5.9827   -5.7095   -5.7095   -5.5491   -5.5491   -4.1961   -4.1961   -3.7603   -3.7603
   -2.8885   -2.8885   -2.5216   -2.5216   -2.2167   -2.2167   -2.1951   -2.1951   -2.0599   -2.0599
   -1.9665   -1.9665   -1.6311   -1.6311   -1.6239   -1.6239   -1.5438   -1.5438   -1.3101   -1.3101
   -1.1061   -1.1061   -0.5725   -0.5725   -0.4203   -0.4203   -0.2387   -0.2387   -0.1967   -0.1967
   -0.1403   -0.1403   -0.0842   -0.0842    0.2212    0.2212    0.3657    0.3657    0.6050    0.6050
    0.6847    0.6847    0.7366    0.7366    1.0375    1.0375    1.3038    1.3038    1.3473    1.3473
    1.3733    1.3733    1.7058    1.7058    1.8831    1.8831    2.1035    2.1036    2.2940    2.2940
    2.5303    2.5303    2.6546    2.6546    2.7778    2.7778    2.8927    2.8927    2.9575    2.9575
    3.0642    3.0642    3.1054    3.1054    3.1364    3.1364    3.5374    3.5374    3.7922    3.7922
    3.8645    3.8645    3.9569    3.9569    4.3043    4.3043    4.3441    4.3441    4.3882    4.3882
    4.4603    4.4603    4.5374    4.5374    4.7594    4.7594    4.9980    4.9980    5.1136    5.1136
    5.1468    5.1468    5.4191    5.4191    5.5437    5.5437    5.6970    5.6970    5.8926    5.8926
    5.9463    5.9463    6.0833    6.0833    6.1675    6.1675    6.4917    6.4917    6.5207    6.5207
    6.6735    6.6735    6.7628    6.7628    6.8411    6.8411    7.0442    7.0442    7.3547    7.3547
    7.3978    7.3978    7.5980    7.5980    7.6981    7.6981    7.8547    7.8547    7.9672    7.9672
    8.2290    8.2290    8.4001    8.4001    8.4789    8.4789    8.5610    8.5610    8.5874    8.5874
    8.6603    8.6603    9.0832    9.0832    9.0969    9.0969    9.4356    9.4356    9.6865    9.6865
    9.7442    9.7442    9.8923    9.8923    9.9506    9.9506   10.0304   10.0304   10.0483   10.0483
   10.2476   10.2476   10.6588   10.6588   10.7388   10.7388   11.0751   11.0751   11.2069   11.2069
   11.4137   11.4137   11.5823   11.5823   11.7425   11.7425   11.8416   11.8416   11.8681   11.8681
   12.2720   12.2720   12.3511   12.3511   12.6404   12.6404   12.6547   12.6547   12.7026   12.7026
   12.9711   12.9711   13.2318   13.2318   13.3645   13.3645   13.4993   13.4993   13.7128   13.7128
   13.9113   13.9113   14.0990   14.0990   14.5717   14.5717   14.6263   14.6263   14.9385   14.9385
   15.0595   15.0595   15.5737   15.5737   15.7465   15.7465   16.0484   16.0484   16.4013   16.4013
   16.6161   16.6161   16.8889   16.8889   16.9879   16.9879   17.2509   17.2509   17.5557   17.5557
   18.0599   18.0599   18.0942   18.0942   18.5367   18.5367   18.6833   18.6833   18.9349   18.9349
   18.9601   18.9601   19.7979   19.7979   20.0313   20.0313   20.2960   20.2960   20.5914   20.5914
   21.0116   21.0116   21.2564   21.2564   21.4425   21.4425   22.3033   22.3033   22.4729   22.4729
   22.6185   22.6185   23.0427   23.0427   23.0773   23.0773   23.1457   23.1457   23.4135   23.4135
   24.7043   24.7043   24.9458   24.9458   25.1784   25.1784   25.7396   25.7396   26.0350   26.0350
   26.3604   26.3604   26.7191   26.7191   27.0719   27.0719   28.0792   28.0792   28.1719   28.1719
   28.4038   28.4038   28.8366   28.8366   29.5406   29.5406   30.6159   30.6159   30.8610   30.8610
   30.9035   30.9035   31.3658   31.3658   31.3743   31.3743   31.5482   31.5482   32.1155   32.1155
   32.1830   32.1830   32.2085   32.2085   33.1775   33.1775   33.6549   33.6549   34.2567   34.2567
   34.2805   34.2805   34.4126   34.4126   34.8586   34.8586   35.6838   35.6838   35.9601   35.9601
   36.4652   36.4652   36.7212   36.7212   37.2697   37.2697   38.1139   38.1139   38.1906   38.1906
   38.9097   38.9097   39.0870   39.0870   39.4174   39.4174   40.0680   40.0680   40.2132   40.2132
   40.5652   40.5652   40.7574   40.7574   41.2482   41.2482   41.3644   41.3644   41.8203   41.8203
   42.6918   42.6918   42.7368   42.7368   43.1692   43.1692   43.4406   43.4406   43.9031   43.9031
   44.6673   44.6673   44.8223   44.8223   45.0542   45.0542   45.3634   45.3634   46.1768   46.1768
   46.6584   46.6584   46.7011   46.7011   46.8570   46.8570   47.6505   47.6505   47.9744   47.9744
   48.2630   48.2630   48.7092   48.7092   48.9901   48.9901   49.2017   49.2017   49.7855   49.7855
   50.3017   50.3017   50.4213   50.4213   50.6969   50.6969   50.7769   50.7769   52.3446   52.3446
   52.3987   52.3987   52.6528   52.6528   54.1653   54.1653   55.0041   55.0041   55.2488   55.2488
   56.0161   56.0161   56.5781   56.5781   56.7481   56.7481   57.0638   57.0638   57.9458   57.9458
   58.9844   58.9844   59.2259   59.2259   59.3533   59.3533   60.6603   60.6603   60.9781   60.9781
   61.2015   61.2015   62.5919   62.5919   62.6897   62.6897   62.7849   62.7849   64.0518   64.0518
   66.1023   66.1023   66.4472   66.4472   67.4798   67.4798   67.7568   67.7568   68.4590   68.4590
   69.5824   69.5824   71.5550   71.5550   74.4722   74.4722   82.6977   82.6977   92.4302   92.4302
   93.0726   93.0726   93.6006   93.6006   96.1695   96.1695   99.0431   99.0431  100.6297  100.6297
  102.4921  102.4921  103.1823  103.1823  114.9046  114.9046  121.5149  121.5149  123.5714  123.5714
  137.4082  137.4082  141.8952  141.8952
siesta: Fermi energy =      -3.978232 eV

siesta: Program's energy decomposition (eV):
siesta: Ebs     =     -1115.927457
siesta: Eions   =      3553.971015
siesta: Ena     =       377.771182
siesta: Ekin    =      2751.287506
siesta: Enl     =     -2532.300945
siesta: Eso     =        -0.004710
siesta: Edftu   =         0.000000
siesta: DEna    =        37.275887
siesta: DUscf   =        14.020019
siesta: DUext   =         0.000000
siesta: Exc     =     -1093.077660
siesta: eta*DQ  =         0.000000
siesta: Emadel  =         0.000000
siesta: Emeta   =         0.000000
siesta: Emolmec =         0.000000
siesta: Ekinion =         0.000000
siesta: Eharris =     -3998.999735
siesta: Etot    =     -3998.999735
siesta: FreeEng =     -3998.999949

siesta: Final energy (eV):
siesta:  Band Struct. =   -1115.927457
siesta:       Kinetic =    2751.287506
siesta:       Hartree =    7582.681302
siesta:       Edftu   =       0.000000
siesta:       Eso     =      -0.004710
siesta:    Ext. field =       0.000000
siesta:   Exch.-corr. =   -1093.077660
siesta:  Ion-electron =  -17613.936664
siesta:       Ion-ion =    4374.050490
siesta:       Ekinion =       0.000000
siesta:         Total =   -3998.999735
siesta:         Fermi =      -3.978232

siesta: Atomic forces (eV/Ang):
siesta:      1   -0.043062    0.058977    0.000002
siesta:      2   -0.007986   -0.053076   -0.000003
siesta:      3    0.003837    0.044707    0.000001
siesta:      4   -0.021640    0.002022    0.000003
siesta:      5    0.009856   -0.037936   -0.000006
siesta:      6    0.062522    0.005484    0.000013
siesta:      7   -0.299966    0.156361    0.000024
siesta:      8    0.137127   -0.140763   -0.000114
siesta:      9    0.065806    0.189752    0.000192
siesta:     10    0.131422    0.064642    0.000019
siesta:     11   -0.008004    0.092405   -0.000036
siesta:     12    0.198624    0.107668   -0.000008
siesta:     13   -0.169003   -0.131721   -0.000004
siesta:     14   -0.005020   -0.122820    0.000008
siesta:     15   -0.000036    0.057707   -0.000005
siesta:     16    0.012755    0.102390    0.008010
siesta:     17    0.019706   -0.065386   -0.039895
siesta:     18   -0.099393    0.087806    0.008344
siesta:     19   -0.034092    0.021409   -0.041280
siesta:     20    0.041699   -0.044471    0.024648
siesta:     21   -0.157228    0.210220    0.067132
siesta:     22   -0.041973    0.050137    0.028405
siesta:     23    0.091704   -0.009214   -0.047466
siesta:     24    0.198047   -0.109675   -0.026497
siesta:     25   -1.971523    4.467221    0.002918
siesta:     26   -0.014831    0.121004    0.006728
siesta:     27    0.077438   -0.376271    0.002830
siesta:     28   -0.083058   -0.149528   -0.000861
siesta:     29   -1.822546   -3.245058   -0.001087
siesta:     30    0.094443    0.131708    0.008227
siesta: ----------------------------------------
siesta:    Tot   -3.634375    1.485702    0.000242

siesta: Stress tensor (static) (eV/Ang**3):
siesta:    -0.001096    0.000189    0.000032
siesta:     0.000189   -0.000057   -0.000029
siesta:     0.000032   -0.000029   -0.000134

siesta: Cell volume =       4197.311124 Ang**3

siesta: Pressure (static):
siesta:                Solid            Molecule  Units
siesta:           0.00000467          0.00000427  Ry/Bohr**3
siesta:           0.00042896          0.00039230  eV/Ang**3
siesta:           0.68727023          0.62853742  kBar
(Free)E+ p_basis*V_orbitals  =       -3977.871863
(Free)Eharris+ p_basis*V_orbitals  =       -3977.871863
     spin moment: S , {S} =    0.00000   0.00000  -0.00000   0.00000

siesta: Electric dipole (a.u.)  =   -0.255756    2.733783   -0.012913
siesta: Electric dipole (Debye) =   -0.650068    6.948588   -0.032821

cite: Please see "AT.bib" for an exhaustive BiBTeX file.
cite: Please clearly indicate Siesta version in published work: v4.1.5-1-g384057250
cite: This calculation has made use of the following articles
cite: which are encouraged to be cited in a published work.
        Primary SIESTA paper
          DOI: www.doi.org/10.1088/0953-8984/14/11/302
        Spin-orbit coupling (on-site approximation)
          DOI: www.doi.org/10.1088/0953-8984/19/19/489001

WARNING: alloc-realloc-dealloc name mismatch
         Name: atomlist isa
         Node:     0
         Subsequent mismatches will not be reported
>> End of run:  22-MAY-2023  10:06:00
Job completed