>> Start of run:  22-MAY-2023   9:45:28

reinit: Reading from standard input
reinit: Dumped input in INPUT_TMP.31285
************************** Dump of input data file ****************************
SystemLabel      AT
NumberOfAtoms    30
NumberOfSpecies  4
%block ChemicalSpeciesLabel
    1    1  H
    2    7  N
    3   14  Si
    4    8  O
%endblock ChemicalSpeciesLabel
# Single point calculation
MD.TypeOfRun                CG
MD.Steps                    0
SCF.MustConverge            F # In case it does not. There can be 2 very close atoms
AtomicCoordinatesFormat NotScaledCartesianAng
%block AtomicCoordinatesAndAtomicSpecies
2.582377650    -5.776830440   0.000000000       1
1.654759240    -5.269361980   0.000000000       2
0.063128840    -6.101704590   0.000000000       3
0.119223240    -7.596849500   0.000000000       1
-1.376892050   -5.182603740   0.000000000       2
-0.824371900   -3.460866440   0.000000000       3
-1.170571480   -1.270002100   0.000000000       3
-2.706933680   -0.417515780   0.000000000       2
-2.754569660   0.634858620    0.000000000       1
-3.637675640   -0.909967860   0.000000000       1
0.218091790    -0.234193970   0.000000000       2
1.872004100    -0.697162300   0.000000000       3
2.828001130    0.461464770    0.000000000       1
2.648150080    -2.255024470   0.000000000       2
1.391921380    -3.454727220   0.000000000       3
1.895639493    4.965504422    0.000000000       2
0.568267973    6.175708722    0.000000000       3
1.208269243    7.537026962    0.000000000       1
-1.517477967   5.505177372    0.000000000       3
-3.547040567   6.635293562    0.000000000       3
-3.392804797   7.795523772    0.940305280       1
-4.532975287   5.613372942    0.512613700       1
-3.963255527   7.111519412    -1.366678340      1
-1.450982547   3.231200752    0.000000000       3
-2.490031277   2.038141252    0.000000000       4
0.206009033    2.597225562    0.000000000       2
0.187991663    1.534780732    0.000000000       1
1.829612103    3.194295772    0.000000000       3
3.024628273    2.179870572    0.000000000       4
2.895676863    5.311011522    0.000000000       1
%endblock AtomicCoordinatesAndAtomicSpecies
%include ../../../Defaults.fdf
************************** End of input data file *****************************

reinit: -----------------------------------------------------------------------
reinit: System Name:
reinit: -----------------------------------------------------------------------
reinit: System Label: AT
reinit: -----------------------------------------------------------------------

initatom: Reading input for the pseudopotentials and atomic orbitals ----------
Species number:   1 Atomic number:    1 Label: H
Species number:   2 Atomic number:    7 Label: N
Species number:   3 Atomic number:   14 Label: Si
Species number:   4 Atomic number:    8 Label: O

Ground state valence configuration:   1s01
Reading pseudopotential information in formatted form from H.psf

Pseudopotential generated from a relativistic atomic calculation

Valence configuration for pseudopotential generation:
1s( 1.00) rc: 0.01
2p( 0.00) rc: 0.60
3d( 0.00) rc: 1.99
4f( 0.00) rc: 2.49
Ground state valence configuration:   2s02  2p03
Reading pseudopotential information in formatted form from N.psf

[...]

Valence configuration for pseudopotential generation:
3s( 2.00) rc: 1.67
3p( 2.00) rc: 2.04
3d( 0.00) rc: 2.89
4f( 0.00) rc: 2.49
Ground state valence configuration:   2s02  2p04
Reading pseudopotential information in formatted form from O.psf

Pseudopotential generated from a relativistic atomic calculation

Valence configuration for pseudopotential generation:
2s( 2.00) rc: 0.45
2p( 4.00) rc: 0.92
3d( 0.00) rc: 2.24
4f( 0.00) rc: 0.25
For H, standard SIESTA heuristics set lmxkb to 2
 (one more than the basis l, including polarization orbitals).
Use PS.lmax or PS.KBprojectors blocks to override.
For N, standard SIESTA heuristics set lmxkb to 3
 (one more than the basis l, including polarization orbitals).
Use PS.lmax or PS.KBprojectors blocks to override.
For Si, standard SIESTA heuristics set lmxkb to 3
 (one more than the basis l, including polarization orbitals).
Use PS.lmax or PS.KBprojectors blocks to override.
For O, standard SIESTA heuristics set lmxkb to 3
 (one more than the basis l, including polarization orbitals).
Use PS.lmax or PS.KBprojectors blocks to override.

<basis_specs>
H                    Z=   1    Mass=  1.0100        Charge= 0.17977+309
Lmxo=0 Lmxkb= 2    BasisType=split      Semic=F
L=0  Nsemic=0  Cnfigmx=1
          i=1  nzeta=2  polorb=1  (1s)
            splnorm:   0.62000
               vcte:    0.0000
               rinn:    0.0000
               qcoe:    0.0000
               qyuk:    0.0000
               qwid:   0.10000E-01
                rcs:    0.0000      0.0000
            lambdas:    1.0000      1.0000
L=0  Nkbl=1  erefs: 0.17977+309
L=1  Nkbl=1  erefs: 0.17977+309
L=2  Nkbl=1  erefs: 0.17977+309
</basis_specs>

atom: Called for H                     (Z =   1)

read_vps: Pseudopotential generation method:
read_vps: ATM4.2.7  Troullier-Martins
Valence charge for ps generation:    1.00000

xc_check: Exchange-correlation functional:
xc_check: GGA Perdew, Burke & Ernzerhof 1996
V l=0 = -2*Zval/r beyond r=  0.0098
V l=1 = -2*Zval/r beyond r=  0.5817
V l=2 = -2*Zval/r beyond r=  1.9372
All V_l potentials equal beyond r=  1.9372
This should be close to max(r_c) in ps generation
All pots = -2*Zval/r beyond r=  1.9372

VLOCAL1: 99.0% of the norm of Vloc inside     11.567 Ry
VLOCAL1: 99.9% of the norm of Vloc inside     26.362 Ry
atom: Maximum radius for 4*pi*r*r*local-pseudopot. charge    2.25106
atom: Maximum radius for r*vlocal+2*Zval:    1.91306
GHOST: No ghost state for L =  0
GHOST: No ghost state for L =  1
GHOST: No ghost state for L =  2

KBgen: Kleinman-Bylander projectors:
   l= 0   rc=  2.036604   el= -0.477180   Ekb= -6.081590   kbcos= -0.277285
   l= 1   rc=  2.195416   el=  0.001076   Ekb= -0.926943   kbcos= -0.034643
   l= 2   rc=  2.251056   el=  0.002010   Ekb= -0.130941   kbcos= -0.009788

KBgen: Total number of Kleinman-Bylander projectors:    9
atom: -------------------------------------------------------------------------

atom: SANKEY-TYPE ORBITALS:
atom: Selected multiple-zeta basis: split

SPLIT: Orbitals with angular momentum L= 0

SPLIT: Basis orbitals for state 1s

SPLIT: PAO cut-off radius determined from an
SPLIT: energy shift=  0.002000 Ry

   izeta = 1
                 lambda =    1.000000
                     rc =    6.518340
                 energy =   -0.475305
                kinetic =    0.912139
    potential(screened) =   -1.387444
       potential(ionic) =   -1.907295

   izeta = 2
                 rmatch =    2.141150
              splitnorm =    0.620000
                 energy =    0.566467
                kinetic =    3.772856
    potential(screened) =   -3.206389
       potential(ionic) =   -3.759093

POLgen: Perturbative polarization orbital with L=  1

POLgen: Polarization orbital for state 1s

   izeta = 1
                     rc =    6.518340
                 energy =    0.533861
                kinetic =    1.121086
    potential(screened) =   -0.587225
       potential(ionic) =   -1.053027
atom: Total number of Sankey-type orbitals:  5

atm_pop: Valence configuration (for local Pseudopot. screening):
 1s( 1.00)
Vna: chval, zval:    1.00000   1.00000

Vna:  Cut-off radius for the neutral-atom potential:   6.518340

atom: _________________________________________________________________________

<basis_specs>
N                    Z=   7    Mass=  14.010        Charge= 0.17977+309
Lmxo=1 Lmxkb= 3    BasisType=split      Semic=F
L=0  Nsemic=0  Cnfigmx=2
          i=1  nzeta=2  polorb=0  (2s)
            splnorm:   0.28000
               vcte:    0.0000
               rinn:    0.0000
               qcoe:    0.0000
               qyuk:    0.0000
               qwid:   0.10000E-01
                rcs:    0.0000      0.0000
            lambdas:    1.0000      1.0000
L=1  Nsemic=0  Cnfigmx=2
          i=1  nzeta=2  polorb=1  (2p)
            splnorm:   0.28000
               vcte:    0.0000
               rinn:    0.0000
               qcoe:    0.0000
               qyuk:    0.0000
               qwid:   0.10000E-01
                rcs:    0.0000      0.0000
            lambdas:    1.0000      1.0000
L=0  Nkbl=1  erefs: 0.17977+309
L=1  Nkbl=1  erefs: 0.17977+309
L=2  Nkbl=1  erefs: 0.17977+309
L=3  Nkbl=1  erefs: 0.17977+309
</basis_specs>

[...]

KBgen: Kleinman-Bylander projectors:
   l= 0   rc=  3.417763   el= -1.365098   Ekb= -4.433130   kbcos= -0.707855
   l= 1   rc=  3.375302   el= -0.521201   Ekb=-13.264039   kbcos= -0.535594
   l= 2   rc=  3.872880   el=  0.001991   Ekb= -0.641094   kbcos= -0.062456
   l= 3   rc=  3.970931   el=  0.003093   Ekb= -0.474517   kbcos= -0.018236

[...]

SPLIT: Basis orbitals for state 2p

[...]

POLgen: Polarization orbital for state 2p

[...]

atm_pop: Valence configuration (for local Pseudopot. screening):
 2s( 2.00)
 2p( 3.00)
Vna: chval, zval:    5.00000   5.00000

[...]

KBgen: Kleinman-Bylander projectors:
   l= 0   rc=  3.075247   el= -0.794092   Ekb=  5.879390   kbcos=  0.167461
   l= 1   rc=  3.153101   el= -0.300068   Ekb=  2.642817   kbcos=  0.058301
   l= 2   rc=  3.273594   el=  0.001958   Ekb= -1.185135   kbcos= -0.104411
   l= 3   rc=  3.232927   el=  0.003046   Ekb= -0.497174   kbcos= -0.015889

[...]

<basis_specs>
O                    Z=   8    Mass=  16.000        Charge= 0.17977+309
Lmxo=1 Lmxkb= 3    BasisType=split      Semic=F
L=0  Nsemic=0  Cnfigmx=2
          i=1  nzeta=2  polorb=0  (2s)
            splnorm:   0.28000
               vcte:    0.0000
               rinn:    0.0000
               qcoe:    0.0000
               qyuk:    0.0000
               qwid:   0.10000E-01
                rcs:    0.0000      0.0000
            lambdas:    1.0000      1.0000
L=1  Nsemic=0  Cnfigmx=2
          i=1  nzeta=2  polorb=1  (2p)
            splnorm:   0.28000
               vcte:    0.0000
               rinn:    0.0000
               qcoe:    0.0000
               qyuk:    0.0000
               qwid:   0.10000E-01
                rcs:    0.0000      0.0000
            lambdas:    1.0000      1.0000
L=0  Nkbl=1  erefs: 0.17977+309
L=1  Nkbl=1  erefs: 0.17977+309
L=2  Nkbl=1  erefs: 0.17977+309
L=3  Nkbl=1  erefs: 0.17977+309
</basis_specs>

atom: Called for O                     (Z =   8)

read_vps: Pseudopotential generation method:
read_vps: ATM4.2.7  Troullier-Martins
Valence charge for ps generation:    6.00000

xc_check: Exchange-correlation functional:
xc_check: GGA Perdew, Burke & Ernzerhof 1996
V l=0 = -2*Zval/r beyond r=  1.1000
V l=1 = -2*Zval/r beyond r=  1.1000
V l=2 = -2*Zval/r beyond r=  2.2154
V l=3 = -2*Zval/r beyond r=  1.1000
All V_l potentials equal beyond r=  2.2154
This should be close to max(r_c) in ps generation
All pots = -2*Zval/r beyond r=  2.2154

VLOCAL1: 99.0% of the norm of Vloc inside      8.845 Ry
VLOCAL1: 99.9% of the norm of Vloc inside     20.157 Ry
atom: Maximum radius for 4*pi*r*r*local-pseudopot. charge    2.67231
atom: Maximum radius for r*vlocal+2*Zval:    2.32897
GHOST: No ghost state for L =  0
[...]

SCF Convergence by DM+H criterion
max |DM_out - DM_in|         :     0.0000001854
max |H_out - H_in|      (eV) :     0.0000008410
SCF cycle converged after 35 iterations

Using DM_out to compute the final energy and forces
No. of atoms with KB's overlaping orbs in proc 0. Max # of overlaps:      24     207

siesta: E_KS(eV) =            -3998.8440

siesta: E_KS - E_eggbox =     -3998.8440
     spin moment: S , {S} =    0.00000  -0.00000   0.00000   0.00000

siesta: Atomic forces (eV/Ang):
     1   -0.033866   -0.007351    0.000010
     2   -0.053420   -0.083824   -0.000053
     3    0.052002    0.052788   -0.000084
     4   -0.048319    0.013137    0.000054
     5   -0.025185   -0.021479   -0.000048
     6    0.179043   -0.028341    0.000281
     7   -1.264703    0.212577    0.000179
     8    0.268621   -2.375821   -0.000839
     9    0.109220    0.767677    0.000840
    10    0.128126   -0.272616    0.000100
    11    0.010963   -0.059508   -0.000305
    12    0.747440   -0.400201   -0.000326
    13   -0.176950   -0.401693   -0.000079
    14   -0.220801   -0.294699    0.000306
    15    0.083986   -0.000220   -0.000135
    16    0.158708    0.007616    0.007400
    17    0.066050   -0.059459   -0.037627
    18   -0.083707    0.064107    0.007598
    19   -0.181456   -0.066035   -0.042028
    20    0.058331   -0.025916    0.020619
    21   -0.135364    0.156554    0.074805
    22   -0.052589    0.062363    0.027877
    23    0.030060    0.043094   -0.051878
    24    0.877705    0.261595   -0.026609
    25    0.949305    2.825532    0.003678
    26   -0.077801    1.650105    0.007549
    27   -0.221165   -1.547555    0.002928
    28   -0.759059    0.202519   -0.000720
    29   -0.472452    2.796406   -0.001063
    30    0.056756    0.159559    0.007359
   Tot   -0.030520    3.630912   -0.000212
   Max    2.825532
   Res    0.604621    sqrt( Sum f_i^2 / 3N )
   Max    2.825532    constrained

Stress tensor Voigt[x,y,z,yz,xz,xy] (kbar):       -1.79       -4.98       -0.22       -0.05        0.05       -0.18
(Free)E + p*V (eV/cell)    -3993.0825
Target enthalpy (eV/cell)    -3998.8470

mulliken: Atomic and Orbital Populations:

Species: H

Atom      Orb        Charge      Spin       Svec
    1  3 2Ppy       0.02825   0.00000      0.000  -0.000  -0.000
    1  4 2Ppz       0.04023   0.00000      0.000   0.000   0.000
    1  5 2Ppx       0.02521   0.00000     -0.000  -0.000   0.000
    1     Total     0.79262   0.00000      0.000   0.000   0.000

    4  3 2Ppy       0.03892   0.00000     -0.000  -0.000   0.000
    4  4 2Ppz       0.02006   0.00000     -0.000  -0.000  -0.000
    4  5 2Ppx       0.01359   0.00000     -0.000   0.000  -0.000
    4     Total     1.19239   0.00000      0.000   0.000  -0.000

[...]

   30  3 2Ppy       0.02902   0.00000     -0.000  -0.000   0.000
   30  4 2Ppz       0.03468   0.00000     -0.000  -0.000   0.000
   30  5 2Ppx       0.02495   0.00000      0.000  -0.000   0.000
   30     Total     0.76839   0.00000     -0.000  -0.000   0.000

Total              11.10055   0.00000      0.000   0.000  -0.000

[...]

Atom      Orb        Charge      Spin       Svec
    2  9 3Pdxy      0.00690   0.00000     -0.000  -0.000  -0.000
    2 10 3Pdyz      0.00601   0.00000     -0.000  -0.000  -0.000
    2 11 3Pdz2      0.00158   0.00000      0.000   0.000   0.000
    2 12 3Pdxz      0.00303   0.00000     -0.000  -0.000   0.000
    2 13 3Pdx2-y2   0.00298   0.00000     -0.000  -0.000  -0.000
    2     Total     5.52729   0.00000     -0.000  -0.000  -0.000

    5  9 3Pdxy      0.00858   0.00000      0.000  -0.000   0.000
    5 10 3Pdyz      0.00706   0.00000     -0.000   0.000   0.000
    5 11 3Pdz2      0.00191   0.00000      0.000   0.000   0.000
    5 12 3Pdxz      0.01128   0.00000      0.000  -0.000  -0.000
    5 13 3Pdx2-y2   0.00920   0.00000     -0.000   0.000  -0.000
    5     Total     5.37818   0.00000      0.000   0.000  -0.000

[...]

Atom      Orb        Charge      Spin       Svec
    3  9 3Pdxy      0.10914   0.00000      0.000   0.000  -0.000
    3 10 3Pdyz      0.05257   0.00000     -0.000   0.000  -0.000
    3 11 3Pdz2      0.01030   0.00000     -0.000  -0.000   0.000
    3 12 3Pdxz      0.13384   0.00000      0.000  -0.000   0.000
    3 13 3Pdx2-y2   0.32496   0.00000     -0.000  -0.000   0.000
    3     Total     3.47037   0.00000     -0.000  -0.000   0.000

[...]

   15  3 3py       -0.00839   0.00000      0.000  -0.000  -0.000
   15  9 3Pdxy      0.14230   0.00000      0.000  -0.000  -0.000
   15 10 3Pdyz      0.12691   0.00000     -0.000   0.000  -0.000
   15 11 3Pdz2      0.01474   0.00000     -0.000   0.000  -0.000
   15 12 3Pdxz      0.12659   0.00000     -0.000   0.000   0.000
   15 13 3Pdx2-y2   0.30971   0.00000     -0.000  -0.000  -0.000
   15     Total     3.65496   0.00000     -0.000   0.000  -0.000

[...]

   28  9 3Pdxy      0.14303   0.00000     -0.000  -0.000  -0.000
   28 10 3Pdyz      0.12720   0.00000      0.000  -0.000   0.000
   28 11 3Pdz2      0.01082   0.00000      0.000  -0.000   0.000
   28 12 3Pdxz      0.15711   0.00000      0.000   0.000   0.000
   28 13 3Pdx2-y2   0.33967   0.00000     -0.000   0.000   0.000
   28     Total     3.24640   0.00000      0.000  -0.000   0.000

[...]

Species: O

Atom      Orb        Charge      Spin       Svec
   25  7 2pz       -0.01024   0.00000      0.000   0.000   0.000
   25  9 3Pdxy      0.00587   0.00000     -0.000  -0.000  -0.000
   25 10 3Pdyz      0.00474   0.00000     -0.000  -0.000   0.000
   25 11 3Pdz2      0.00237   0.00000      0.000  -0.000   0.000
   25 12 3Pdxz      0.00382   0.00000      0.000  -0.000  -0.000
   25 13 3Pdx2-y2   0.01115   0.00000     -0.000   0.000   0.000
   25     Total     6.46559   0.00000     -0.000  -0.000  -0.000

   29  7 2pz       -0.00352   0.00000      0.000  -0.000   0.000
   29  9 3Pdxy      0.00773   0.00000     -0.000   0.000  -0.000
   29 10 3Pdyz      0.00383   0.00000     -0.000  -0.000  -0.000
   29 11 3Pdz2      0.00252   0.00000      0.000   0.000   0.000
   29 12 3Pdxz      0.00626   0.00000      0.000   0.000   0.000
   29 13 3Pdx2-y2   0.01190   0.00000     -0.000   0.000   0.000
   29     Total     6.47336   0.00000     -0.000   0.000  -0.000

Total              98.00000   0.00000     -0.000   0.000   0.000

siesta: Eigenvalues (eV):
ik =     1
  -23.3336  -23.3336  -23.2330  -23.2330  -22.0674  -22.0674  -21.1094  -21.1094  -20.8863  -20.8863
  -19.9737  -19.9737  -19.3093  -19.3093  -19.1404  -19.1404  -18.5932  -18.5932  -15.3663  -15.3663
  -14.4155  -14.4155  -13.6633  -13.6633  -13.5586  -13.5586  -13.3550  -13.3550  -12.7876  -12.7876
  -12.3362  -12.3362  -12.1268  -12.1268  -11.7974  -11.7974  -11.5250  -11.5250  -11.3676  -11.3676
  -10.7794  -10.7794  -10.7048  -10.7048  -10.1208  -10.1208   -9.8515   -9.8515   -9.6052   -9.6052
   -9.4920   -9.4920   -9.2217   -9.2217   -9.1733   -9.1733   -8.9182   -8.9182   -8.6937   -8.6937
   -8.6197   -8.6197   -8.3268   -8.3268   -8.2554   -8.2554   -8.0162   -8.0162   -8.0084   -8.0084
   -7.6806   -7.6806   -7.6132   -7.6132   -7.2844   -7.2844   -7.2106   -7.2106   -6.9643   -6.9643
   -6.8621   -6.8621   -6.5104   -6.5104   -6.4215   -6.4215   -6.1655   -6.1655   -6.1321   -6.1321
   -6.0228   -6.0228   -5.5054   -5.5054   -5.4688   -5.4688   -4.0672   -4.0672   -3.7879   -3.7879
   -2.9422   -2.9422   -2.5867   -2.5867   -2.3262   -2.3262   -2.0959   -2.0959   -2.0785   -2.0785
   -1.8800   -1.8800   -1.7197   -1.7197   -1.5013   -1.5013   -1.4027   -1.4027   -1.1552   -1.1552
   -1.1138   -1.1138   -0.4404   -0.4404   -0.3786   -0.3786   -0.2569   -0.2569   -0.1620   -0.1620
   -0.0757   -0.0757    0.0853    0.0853    0.2331    0.2331    0.3339    0.3339    0.7102    0.7102
    0.7680    0.7680    0.9122    0.9122    1.0276    1.0276    1.3242    1.3242    1.4157    1.4157
    1.7560    1.7560    1.8969    1.8969    2.2363    2.2363    2.3301    2.3301    2.5157    2.5157
    2.5313    2.5313    2.7454    2.7454    2.8803    2.8803    2.9923    2.9923    3.0652    3.0652
    3.1570    3.1570    3.2061    3.2061    3.6063    3.6063    3.8234    3.8234    3.9323    3.9323
    4.2634    4.2634    4.3009    4.3009    4.4845    4.4845    4.5853    4.5853    4.7267    4.7267
    4.7984    4.7984    5.1032    5.1032    5.1412    5.1412    5.2102    5.2102    5.3954    5.3954
    5.4724    5.4724    5.5394    5.5394    5.8802    5.8802    5.9240    5.9240    6.2783    6.2783
    6.3380    6.3380    6.4519    6.4519    6.5486    6.5486    6.7826    6.7826    6.8973    6.8973
    7.0323    7.0323    7.0768    7.0768    7.2220    7.2220    7.5435    7.5435    7.6071    7.6071
    7.6475    7.6475    7.7621    7.7621    8.0570    8.0570    8.1983    8.1983    8.3272    8.3272
    8.3768    8.3768    8.4937    8.4937    8.8078    8.8078    8.8518    8.8518    9.0608    9.0608
    9.3358    9.3358    9.4692    9.4692    9.6333    9.6333    9.6627    9.6627    9.7595    9.7595
    9.8761    9.8761   10.2188   10.2188   10.2563   10.2563   10.3363   10.3363   10.5771   10.5771
   10.7748   10.7748   10.9928   10.9928   11.2083   11.2083   11.2881   11.2881   11.4313   11.4313
   11.7955   11.7955   11.8189   11.8189   11.9964   11.9964   12.0885   12.0885   12.2772   12.2772
   12.3965   12.3965   12.6948   12.6948   13.0021   13.0021   13.1144   13.1144   13.2595   13.2595
   13.4561   13.4561   13.5401   13.5401   14.0678   14.0678   14.1686   14.1686   14.3020   14.3020
   14.4816   14.4816   14.5011   14.5011   15.0907   15.0907   15.2880   15.2880   15.4285   15.4285
   15.7878   15.7878   15.9015   15.9015   16.1652   16.1652   16.4757   16.4757   16.6587   16.6587
   16.7817   16.7817   17.1503   17.1503   17.6904   17.6904   17.7695   17.7695   18.1491   18.1491
   18.3732   18.3732   18.6505   18.6505   18.7760   18.7760   19.0341   19.0341   19.4877   19.4877
   19.8145   19.8145   20.0114   20.0114   20.6612   20.6612   20.8527   20.8527   21.1078   21.1078
   21.5762   21.5762   21.9732   21.9732   22.4015   22.4015   22.7553   22.7553   22.8263   22.8263
   23.2279   23.2279   23.5771   23.5771   24.1508   24.1508   24.2514   24.2514   24.8971   24.8971
   25.1958   25.1958   25.5706   25.5706   25.8064   25.8064   26.1589   26.1589   26.9053   26.9053
   27.3568   27.3568   27.9457   27.9457   28.1573   28.1573   28.7186   28.7186   29.1282   29.1282
   29.2694   29.2694   29.7057   29.7057   30.9518   30.9518   30.9778   30.9778   31.4233   31.4233
   31.5270   31.5270   31.6350   31.6350   32.1762   32.1762   32.7438   32.7438   33.7371   33.7371
   34.1308   34.1308   34.8904   34.8904   35.2337   35.2337   35.7211   35.7211   36.1298   36.1298
   36.4263   36.4263   36.5334   36.5334   37.3846   37.3846   37.4764   37.4764   38.1199   38.1199
   38.4729   38.4729   38.9796   38.9796   39.0730   39.0730   40.0746   40.0746   40.6246   40.6246
   40.7142   40.7142   40.9534   40.9534   41.2068   41.2068   41.5861   41.5861   42.1944   42.1944
   43.2140   43.2140   43.4318   43.4318   43.5939   43.5939   43.9151   43.9151   44.0773   44.0773
   44.3713   44.3713   44.3836   44.3836   44.6860   44.6860   45.3897   45.3897   45.6899   45.6899
   45.9892   45.9892   46.5661   46.5661   47.1533   47.1533   47.4646   47.4646   47.5850   47.5850
   48.4458   48.4458   48.6951   48.6951   49.1914   49.1914   49.6501   49.6501   49.7793   49.7793
   49.9787   49.9787   50.4543   50.4543   50.5179   50.5179   50.5532   50.5532   51.5447   51.5447
   51.8198   51.8198   53.5623   53.5623   53.8302   53.8302   54.2056   54.2056   54.7095   54.7095
   54.8518   54.8518   56.0283   56.0283   56.5771   56.5771   56.7445   56.7445   57.8124   57.8124
   58.4191   58.4191   59.1339   59.1339   59.9439   59.9439   60.2314   60.2314   60.4684   60.4684
   61.7574   61.7574   61.9545   61.9545   63.1691   63.1691   64.3402   64.3402   65.5673   65.5673
   65.7683   65.7683   66.4498   66.4498   66.7182   66.7182   66.9907   66.9907   68.1157   68.1157
   70.3690   70.3690   70.7889   70.7889   71.7120   71.7120   72.9677   72.9677   76.0619   76.0619
   80.0780   80.0780   82.9550   82.9550   92.3182   92.3182   92.6389   92.6389   93.0372   93.0372
   94.0547   94.0547   97.6784   97.6784   99.5484   99.5484  101.4205  101.4205  103.1588  103.1588
  104.4319  104.4319  109.7197  109.7197  118.5622  118.5622  124.1627  124.1627  126.4040  126.4040
  144.4243  144.4243  149.7839  149.7839
siesta: Fermi energy =      -3.927562 eV

siesta: Program's energy decomposition (eV):
siesta: Ebs     =     -1115.280690
siesta: Eions   =      3553.971015
siesta: Ena     =       377.672933
siesta: Ekin    =      2761.327684
siesta: Enl     =     -2539.328987
siesta: Eso     =        -0.004802
siesta: Edftu   =         0.000000
siesta: DEna    =        37.850908
siesta: DUscf   =        13.772063
siesta: DUext   =         0.000000
siesta: Exc     =     -1096.162802
siesta: eta*DQ  =         0.000000
siesta: Emadel  =         0.000000
siesta: Emeta   =         0.000000
siesta: Emolmec =         0.000000
siesta: Ekinion =         0.000000
siesta: Eharris =     -3998.844017
siesta: Etot    =     -3998.844017
siesta: FreeEng =     -3998.846989

siesta: Final energy (eV):
siesta:  Band Struct. =   -1115.280690
siesta:       Kinetic =    2761.327684
siesta:       Hartree =    8235.061540
siesta:       Edftu   =       0.000000
siesta:       Eso     =      -0.004802
siesta:    Ext. field =       0.000000
siesta:   Exch.-corr. =   -1096.162802
siesta:  Ion-electron =  -18923.814140
siesta:       Ion-ion =    5024.748502
siesta:       Ekinion =       0.000000
siesta:         Total =   -3998.844017
siesta:         Fermi =      -3.927562

siesta: Atomic forces (eV/Ang):
siesta:      1   -0.033866   -0.007351    0.000010
siesta:      2   -0.053420   -0.083824   -0.000053
siesta:      3    0.052002    0.052788   -0.000084
siesta:      4   -0.048319    0.013137    0.000054
siesta:      5   -0.025185   -0.021479   -0.000048
siesta:      6    0.179043   -0.028341    0.000281
siesta:      7   -1.264703    0.212577    0.000179
siesta:      8    0.268621   -2.375821   -0.000839
siesta:      9    0.109220    0.767677    0.000840
siesta:     10    0.128126   -0.272616    0.000100
siesta:     11    0.010963   -0.059508   -0.000305
siesta:     12    0.747440   -0.400201   -0.000326
siesta:     13   -0.176950   -0.401693   -0.000079
siesta:     14   -0.220801   -0.294699    0.000306
siesta:     15    0.083986   -0.000220   -0.000135
siesta:     16    0.158708    0.007616    0.007400
siesta:     17    0.066050   -0.059459   -0.037627
siesta:     18   -0.083707    0.064107    0.007598
siesta:     19   -0.181456   -0.066035   -0.042028
siesta:     20    0.058331   -0.025916    0.020619
siesta:     21   -0.135364    0.156554    0.074805
siesta:     22   -0.052589    0.062363    0.027877
siesta:     23    0.030060    0.043094   -0.051878
siesta:     24    0.877705    0.261595   -0.026609
siesta:     25    0.949305    2.825532    0.003678
siesta:     26   -0.077801    1.650105    0.007549
siesta:     27   -0.221165   -1.547555    0.002928
siesta:     28   -0.759059    0.202519   -0.000720
siesta:     29   -0.472452    2.796406   -0.001063
siesta:     30    0.056756    0.159559    0.007359
siesta: ----------------------------------------
siesta:    Tot   -0.030520    3.630912   -0.000212

siesta: Stress tensor (static) (eV/Ang**3):
siesta:    -0.001120   -0.000111    0.000034
siesta:    -0.000111   -0.003106   -0.000030
siesta:     0.000034   -0.000030   -0.000135

siesta: Cell volume =       3965.271126 Ang**3

siesta: Pressure (static):
siesta:                Solid            Molecule  Units
siesta:           0.00001583          0.00000549  Ry/Bohr**3
siesta:           0.00145374          0.00050422  eV/Ang**3
siesta:           2.32917813          0.80786567  kBar
(Free)E+ p_basis*V_orbitals  =       -3977.718904
(Free)Eharris+ p_basis*V_orbitals  =       -3977.718904
     spin moment: S , {S} =    0.00000  -0.00000   0.00000   0.00000

siesta: Electric dipole (a.u.)  =   -0.030627    2.923022   -0.013081
siesta: Electric dipole (Debye) =   -0.077846    7.429585   -0.033248

cite: Please see "AT.bib" for an exhaustive BiBTeX file.
cite: Please clearly indicate Siesta version in published work: v4.1.5-1-g384057250
cite: This calculation has made use of the following articles
cite: which are encouraged to be cited in a published work.
        Primary SIESTA paper
          DOI: www.doi.org/10.1088/0953-8984/14/11/302
        Spin-orbit coupling (on-site approximation)
          DOI: www.doi.org/10.1088/0953-8984/19/19/489001

WARNING: alloc-realloc-dealloc name mismatch
         Name: atomlist isa
         Node:     0
         Subsequent mismatches will not be reported
>> End of run:  22-MAY-2023   9:47:39
Job completed