>> Start of run:  16-MAY-2023   0:21:48

reinit: Reading from standard input
reinit: Dumped input in INPUT_TMP.11167
************************** Dump of input data file ****************************
# mpirun -np 4 siesta-4.1.5 < Thymine.fdf > Thymine.out
SystemLabel      Thymine
NumberOfAtoms    15
NumberOfSpecies  4
%block ChemicalSpeciesLabel
    1    7  N
    2   14  Si
    3    1  H
    4    8  O
%endblock ChemicalSpeciesLabel
# This overrides Defaults.fdf conf
MD.TypeOfRun                CG # CG, Verlet
MD.Steps                    400
MD.MaxForceTol              0.0001 eV/Ang
AtomicCoordinatesFormat NotScaledCartesianAng
%block AtomicCoordinatesAndAtomicSpecies
   -0.65036146    4.45062811    0.00000000   1       1  N
   -2.44721426    4.58822155    0.00000000   2       2  Si
   -2.81795898    6.05493469    0.00000000   3       3  H
   -3.63521118    2.74896948    0.00000000   2       4  Si
   -5.92446345    2.30902435    0.00000000   2       5  Si
   -6.59306949    3.29487939    0.92080482   3       6  H
   -6.06453674    0.89068502    0.49451629   3       7  H
   -6.50474503    2.40490001   -1.38436682   3       8  H
   -2.13627022    1.03191223    0.00000000   2       9  Si
   -2.37871376   -0.53414951    0.00000000   4      10  O
   -0.41462503    1.53504950    0.00000000   1      11  N
    0.26244516    0.71251724    0.00000000   3      12  H
    0.45021676    3.05280002    0.00000000   2      13  Si
    2.02522653    3.11861111    0.00000000   4      14  O
   -0.08884137    5.34747758    0.00000000   3      15  H
%endblock AtomicCoordinatesAndAtomicSpecies
%block Geometry.Constraints
    atom all 0.0 0.0 1.0 # constrain along z Cartesian vector
    clear-prev [6 -- 8]
%endblock
%include ../../Defaults.fdf
************************** End of input data file *****************************

reinit: -----------------------------------------------------------------------
reinit: System Name:
reinit: -----------------------------------------------------------------------
reinit: System Label: Thymine
reinit: -----------------------------------------------------------------------

initatom: Reading input for the pseudopotentials and atomic orbitals ----------
Species number:   1 Atomic number:    7 Label: N
Species number:   2 Atomic number:   14 Label: Si
Species number:   3 Atomic number:    1 Label: H
Species number:   4 Atomic number:    8 Label: O

Ground state valence configuration:   2s02  2p03
Reading pseudopotential information in formatted form from N.psf

Pseudopotential generated from a relativistic atomic calculation

Valence configuration for pseudopotential generation:
2s( 2.00) rc: 0.94
2p( 3.00) rc: 0.59
3d( 0.00) rc: 3.46
4f( 0.00) rc: 2.47
Ground state valence configuration:   3s02  3p02
Reading pseudopotential information in formatted form from Si.psf

[...]

Valence configuration for pseudopotential generation:
3s( 2.00) rc: 1.67
3p( 2.00) rc: 2.04
3d( 0.00) rc: 2.89
4f( 0.00) rc: 2.49
Ground state valence configuration:   1s01
Reading pseudopotential information in formatted form from H.psf

[...]

Valence configuration for pseudopotential generation:
1s( 1.00) rc: 0.01
2p( 0.00) rc: 0.60
3d( 0.00) rc: 1.99
4f( 0.00) rc: 2.49
Ground state valence configuration:   2s02  2p04
Reading pseudopotential information in formatted form from O.psf

Pseudopotential generated from a relativistic atomic calculation

Valence configuration for pseudopotential generation:
2s( 2.00) rc: 0.45
2p( 4.00) rc: 0.92
3d( 0.00) rc: 2.24
4f( 0.00) rc: 0.25
For N, standard SIESTA heuristics set lmxkb to 3
 (one more than the basis l, including polarization orbitals).
Use PS.lmax or PS.KBprojectors blocks to override.
For Si, standard SIESTA heuristics set lmxkb to 3
 (one more than the basis l, including polarization orbitals).
Use PS.lmax or PS.KBprojectors blocks to override.
For H, standard SIESTA heuristics set lmxkb to 2
 (one more than the basis l, including polarization orbitals).
Use PS.lmax or PS.KBprojectors blocks to override.
For O, standard SIESTA heuristics set lmxkb to 3
 (one more than the basis l, including polarization orbitals).
Use PS.lmax or PS.KBprojectors blocks to override.

<basis_specs>
N                    Z=   7    Mass=  14.010        Charge= 0.17977+309
Lmxo=1 Lmxkb= 3    BasisType=split      Semic=F
L=0  Nsemic=0  Cnfigmx=2
          i=1  nzeta=2  polorb=0  (2s)
            splnorm:   0.28000
               vcte:    0.0000
               rinn:    0.0000
               qcoe:    0.0000
               qyuk:    0.0000
               qwid:   0.10000E-01
                rcs:    0.0000      0.0000
            lambdas:    1.0000      1.0000
L=1  Nsemic=0  Cnfigmx=2
          i=1  nzeta=2  polorb=1  (2p)
            splnorm:   0.28000
               vcte:    0.0000
               rinn:    0.0000
               qcoe:    0.0000
               qyuk:    0.0000
               qwid:   0.10000E-01
                rcs:    0.0000      0.0000
            lambdas:    1.0000      1.0000
L=0  Nkbl=1  erefs: 0.17977+309
L=1  Nkbl=1  erefs: 0.17977+309
L=2  Nkbl=1  erefs: 0.17977+309
L=3  Nkbl=1  erefs: 0.17977+309
</basis_specs>

atom: Called for N                     (Z =   7)

read_vps: Pseudopotential generation method:
read_vps: ATM4.2.7  Troullier-Martins
Valence charge for ps generation:    5.00000

xc_check: Exchange-correlation functional:
xc_check: GGA Perdew, Burke & Ernzerhof 1996
V l=0 = -2*Zval/r beyond r=  1.2889
V l=1 = -2*Zval/r beyond r=  1.2889
V l=2 = -2*Zval/r beyond r=  3.4178
V l=3 = -2*Zval/r beyond r=  2.4084
All V_l potentials equal beyond r=  3.3753
This should be close to max(r_c) in ps generation
All pots = -2*Zval/r beyond r=  3.4178

VLOCAL1: 99.0% of the norm of Vloc inside      3.810 Ry
VLOCAL1: 99.9% of the norm of Vloc inside      8.683 Ry
atom: Maximum radius for 4*pi*r*r*local-pseudopot. charge    4.02088
atom: Maximum radius for r*vlocal+2*Zval:    3.54838
GHOST: No ghost state for L =  0
GHOST: No ghost state for L =  1
GHOST: No ghost state for L =  2
GHOST: No ghost state for L =  3

KBgen: Kleinman-Bylander projectors:
   l= 0   rc=  3.417763   el= -1.365098   Ekb= -4.433130   kbcos= -0.707855
   l= 1   rc=  3.375302   el= -0.521201   Ekb=-13.264039   kbcos= -0.535594
   l= 2   rc=  3.872880   el=  0.001991   Ekb= -0.641094   kbcos= -0.062456
   l= 3   rc=  3.970931   el=  0.003093   Ekb= -0.474517   kbcos= -0.018236

KBgen: Total number of Kleinman-Bylander projectors:   16
atom: -------------------------------------------------------------------------

atom: SANKEY-TYPE ORBITALS:
atom: Selected multiple-zeta basis: split

SPLIT: Orbitals with angular momentum L= 0

SPLIT: Basis orbitals for state 2s

SPLIT: PAO cut-off radius determined from an
SPLIT: energy shift=  0.002000 Ry

   izeta = 1
                 lambda =    1.000000
                     rc =    4.730425
                 energy =   -1.363399
                kinetic =    1.245246
    potential(screened) =   -2.608645
       potential(ionic) =   -8.121105

   izeta = 2
                 rmatch =    2.531849
              splitnorm =    0.280000
                 energy =   -0.959908
                kinetic =    2.409435
    potential(screened) =   -3.369343
       potential(ionic) =   -9.427975

[...]

SPLIT: Basis orbitals for state 2p

[...]

POLgen: Perturbative polarization orbital with L=  2

POLgen: Polarization orbital for state 2p

   izeta = 1
                     rc =    5.924108
                 energy =    1.427508
                kinetic =    2.872379
    potential(screened) =   -1.444871
       potential(ionic) =   -5.563644
atom: Total number of Sankey-type orbitals: 13

atm_pop: Valence configuration (for local Pseudopot. screening):
 2s( 2.00)
 2p( 3.00)
Vna: chval, zval:    5.00000   5.00000

Vna:  Cut-off radius for the neutral-atom potential:   5.924108

atom: _________________________________________________________________________

[...]

KBgen: Kleinman-Bylander projectors:
   l= 0   rc=  3.075247   el= -0.794092   Ekb=  5.879390   kbcos=  0.167461
   l= 1   rc=  3.153101   el= -0.300068   Ekb=  2.642817   kbcos=  0.058301
   l= 2   rc=  3.273594   el=  0.001958   Ekb= -1.185135   kbcos= -0.104411
   l= 3   rc=  3.232927   el=  0.003046   Ekb= -0.497174   kbcos= -0.015889

[...]

<basis_specs>
H                    Z=   1    Mass=  1.0100        Charge= 0.17977+309
Lmxo=0 Lmxkb= 2    BasisType=split      Semic=F
L=0  Nsemic=0  Cnfigmx=1
          i=1  nzeta=2  polorb=1  (1s)
            splnorm:   0.62000
               vcte:    0.0000
               rinn:    0.0000
               qcoe:    0.0000
               qyuk:    0.0000
               qwid:   0.10000E-01
                rcs:    0.0000      0.0000
            lambdas:    1.0000      1.0000
L=0  Nkbl=1  erefs: 0.17977+309
L=1  Nkbl=1  erefs: 0.17977+309
L=2  Nkbl=1  erefs: 0.17977+309
</basis_specs>

[...]

KBgen: Kleinman-Bylander projectors:
   l= 0   rc=  2.036604   el= -0.477180   Ekb= -6.081590   kbcos= -0.277285
   l= 1   rc=  2.195416   el=  0.001076   Ekb= -0.926943   kbcos= -0.034643
   l= 2   rc=  2.251056   el=  0.002010   Ekb= -0.130941   kbcos= -0.009788

[...]

POLgen: Polarization orbital for state 1s

[...]

atm_pop: Valence configuration (for local Pseudopot. screening):
 1s( 1.00)
Vna: chval, zval:    1.00000   1.00000

[...]

<basis_specs>
O                    Z=   8    Mass=  16.000        Charge= 0.17977+309
Lmxo=1 Lmxkb= 3    BasisType=split      Semic=F
L=0  Nsemic=0  Cnfigmx=2
          i=1  nzeta=2  polorb=0  (2s)
            splnorm:   0.28000
               vcte:    0.0000
               rinn:    0.0000
               qcoe:    0.0000
               qyuk:    0.0000
               qwid:   0.10000E-01
                rcs:    0.0000      0.0000
            lambdas:    1.0000      1.0000
L=1  Nsemic=0  Cnfigmx=2
          i=1  nzeta=2  polorb=1  (2p)
            splnorm:   0.28000
               vcte:    0.0000
               rinn:    0.0000
               qcoe:    0.0000
               qyuk:    0.0000
               qwid:   0.10000E-01
                rcs:    0.0000      0.0000
            lambdas:    1.0000      1.0000
L=0  Nkbl=1  erefs: 0.17977+309
L=1  Nkbl=1  erefs: 0.17977+309
L=2  Nkbl=1  erefs: 0.17977+309
L=3  Nkbl=1  erefs: 0.17977+309
</basis_specs>

atom: Called for O                     (Z =   8)

read_vps: Pseudopotential generation method:
read_vps: ATM4.2.7  Troullier-Martins
Valence charge for ps generation:    6.00000

xc_check: Exchange-correlation functional:
xc_check: GGA Perdew, Burke & Ernzerhof 1996
V l=0 = -2*Zval/r beyond r=  1.1000
V l=1 = -2*Zval/r beyond r=  1.1000
V l=2 = -2*Zval/r beyond r=  2.2154
V l=3 = -2*Zval/r beyond r=  1.1000
All V_l potentials equal beyond r=  2.2154
This should be close to max(r_c) in ps generation
All pots = -2*Zval/r beyond r=  2.2154

VLOCAL1: 99.0% of the norm of Vloc inside      8.845 Ry
VLOCAL1: 99.9% of the norm of Vloc inside     20.157 Ry
atom: Maximum radius for 4*pi*r*r*local-pseudopot. charge    2.67231
atom: Maximum radius for r*vlocal+2*Zval:    2.32897
GHOST: No ghost state for L =  0
GHOST: No ghost state for L =  1
GHOST: No ghost state for L =  2
GHOST: No ghost state for L =  3

[...]
   scf:    7    -2039.322297    -2039.322297    -2039.322297  0.000000 -4.449371  0.000000
     spin moment: S , {S} =    0.00000   0.00000  -0.00000   0.00000

[...]

        iscf     Eharris(eV)        E_KS(eV)     FreeEng(eV)     dDmax    Ef(eV) dHmax(eV)
   scf:    1    -2039.322305    -2039.322297    -2039.322297  0.000000 -4.449354  0.000019
     spin moment: S , {S} =    0.00000   0.00000  -0.00000   0.00000
   scf:    2    -2039.322297    -2039.322297    -2039.322297  0.000000 -4.449346  0.000036
     spin moment: S , {S} =    0.00000   0.00000  -0.00000   0.00000
   scf:    3    -2039.322297    -2039.322297    -2039.322297  0.000000 -4.449351  0.000002
     spin moment: S , {S} =    0.00000   0.00000  -0.00000   0.00000
   scf:    4    -2039.322297    -2039.322297    -2039.322297  0.000000 -4.449351  0.000001
     spin moment: S , {S} =    0.00000   0.00000  -0.00000   0.00000

[...]

cgvc: Finished line minimization   70.  Mean atomic displacement =    0.0000

[...]

        iscf     Eharris(eV)        E_KS(eV)     FreeEng(eV)     dDmax    Ef(eV) dHmax(eV)
   scf:    1    -2039.322292    -2039.322297    -2039.322297  0.000002 -4.449362  0.000078
     spin moment: S , {S} =    0.00000   0.00000  -0.00000   0.00000
   scf:    2    -2039.322297    -2039.322297    -2039.322297  0.000003 -4.449399  0.000204
     spin moment: S , {S} =    0.00000   0.00000  -0.00000   0.00000
   scf:    3    -2039.322297    -2039.322297    -2039.322297  0.000002 -4.449373  0.000012
     spin moment: S , {S} =    0.00000   0.00000  -0.00000   0.00000
   scf:    4    -2039.322297    -2039.322297    -2039.322297  0.000000 -4.449374  0.000004
     spin moment: S , {S} =    0.00000   0.00000  -0.00000   0.00000
   scf:    5    -2039.322297    -2039.322297    -2039.322297  0.000000 -4.449374  0.000001
     spin moment: S , {S} =    0.00000   0.00000  -0.00000   0.00000
   scf:    6    -2039.322297    -2039.322297    -2039.322297  0.000000 -4.449374  0.000000
     spin moment: S , {S} =    0.00000   0.00000  -0.00000   0.00000

[...]

                        Begin CG opt. move =    175

outcoor: Atomic coordinates (Ang):
   -0.72091097    4.52666618    0.00000000   1       1  N
   -2.51564088    4.60051849    0.00000000   2       2  Si
   -2.90040995    6.05473365    0.00000000   3       3  H
   -3.68240572    2.74617003    0.00000000   2       4  Si
   -5.96356556    2.30731156    0.00000000   2       5  Si
   -6.59119571    3.29524031    0.94030528   3       6  H
   -6.06195746    0.89072833    0.51261370   3       7  H
   -6.58851679    2.40458391   -1.36667834   3       8  H
   -2.16978327    1.04694531    0.00000000   2       9  Si
   -2.19885692   -0.53487894    0.00000000   4      10  O
   -0.49294269    1.62638579    0.00000000   1      11  N
    0.17618158    0.80092449    0.00000000   3      12  H
    0.36702009    3.12740005    0.00000000   2      13  Si
    1.93451553    3.11844685    0.00000000   4      14  O
   -0.17692559    5.43415161    0.00000000   3      15  H

outcell: Unit cell vectors (Ang):
       16.866832    0.000000    0.000000
        0.000000   14.246958    0.000000
        0.000000    0.000000   10.244437

outcell: Cell vector modules (Ang)   :   16.866832   14.246958   10.244437
outcell: Cell angles (23,13,12) (deg):     90.0000     90.0000     90.0000
outcell: Cell volume (Ang**3)        :   2461.7487
<dSpData1D:S at geom step 175
  <sparsity:sparsity for geom step 175
    nrows_g=147 nrows=27 sparsity=.1811 nnzs=3914, refcount: 8>
  <dData1D:(new from dSpData1D) n=3914, refcount: 1>
refcount: 1>
new_DM -- step:   176
Re-using DM from previous geometries...
Number of DMs in history: 1
 DM extrapolation coefficients:
1   1.00000
New DM after history re-use:
<dSpData2D:SpM extrapolated using coords
  <sparsity:sparsity for geom step 175
    nrows_g=147 nrows=27 sparsity=.1811 nnzs=3914, refcount: 10>
  <dData2D:(temp array for extrapolation) n=3914 m=8, refcount: 1>
refcount: 1>
     spin moment: S , {S} =    0.00000   0.00000  -0.00000   0.00000
No. of atoms with KB's overlaping orbs in proc 0. Max # of overlaps:      15     125
New grid distribution:   1
           1       1:   96    1:   40    1:   20
           2       1:   96    1:   40   21:   40
           3       1:   96    1:   40   41:   60
           4       1:   96   41:   80    1:   20
           5       1:   96   41:   80   21:   40
           6       1:   96   41:   80   41:   60

InitMesh: MESH =   192 x   160 x   120 =     3686400
InitMesh: (bp) =    96 x    80 x    60 =      460800
InitMesh: Mesh cutoff (required, used) =   340.000   348.576 Ry
ExtMesh (bp) on 0 =   200 x   144 x   128 =     3686400
New grid distribution:   2
           1       1:   77    1:   13    1:   60
           2      78:   96   15:   80    1:   20
           3      78:   96    1:   14    1:   60
           4       1:   77   14:   80    1:   20
           5       1:   77   14:   80   21:   60
           6      78:   96   15:   80   21:   60
New grid distribution:   3
           1       1:   64    1:   15    1:   60
           2      65:   96   20:   80    1:   25
           3      65:   96    1:   19    1:   60
           4       1:   64   16:   80    1:   23
           5      65:   96   20:   80   26:   60
           6       1:   64   16:   80   24:   60
Setting up quadratic distribution...
ExtMesh (bp) on 0 =   181 x   117 x   168 =     3557736
PhiOnMesh: Number of (b)points on node 0 =                60060
PhiOnMesh: nlist on node 0 =               919557

        iscf     Eharris(eV)        E_KS(eV)     FreeEng(eV)     dDmax    Ef(eV) dHmax(eV)
   scf:    1    -2039.322297    -2039.322296    -2039.322296  0.000000 -4.449372  0.000016
     spin moment: S , {S} =    0.00000   0.00000  -0.00000   0.00000
   scf:    2    -2039.322296    -2039.322296    -2039.322296  0.000001 -4.449364  0.000039
     spin moment: S , {S} =    0.00000   0.00000  -0.00000   0.00000
   scf:    3    -2039.322296    -2039.322296    -2039.322296  0.000000 -4.449369  0.000002
     spin moment: S , {S} =    0.00000   0.00000  -0.00000   0.00000
   scf:    4    -2039.322296    -2039.322296    -2039.322296  0.000000 -4.449369  0.000001
     spin moment: S , {S} =    0.00000   0.00000  -0.00000   0.00000

SCF Convergence by DM+H criterion
max |DM_out - DM_in|         :     0.0000000166
max |H_out - H_in|      (eV) :     0.0000008071
SCF cycle converged after 4 iterations

Using DM_out to compute the final energy and forces
No. of atoms with KB's overlaping orbs in proc 0. Max # of overlaps:      15     125

siesta: E_KS(eV) =            -2039.3223
     spin moment: S , {S} =    0.00000   0.00000  -0.00000   0.00000

siesta: Atomic forces (eV/Ang):
     1    0.000052    0.000013    0.008073
     2   -0.000072   -0.000010   -0.039589
     3   -0.000010   -0.000016    0.008275
     4    0.000004   -0.000039   -0.041935
     5    0.000014    0.000024    0.025014
     6   -0.000003    0.000011    0.000020
     7    0.000011   -0.000002    0.000006
     8   -0.000040    0.000081   -0.000034
     9    0.000065   -0.000032   -0.026745
    10    0.000010    0.000024    0.003178
    11   -0.000029    0.000032    0.006763
    12   -0.000019    0.000023    0.002767
    13    0.000037    0.000004   -0.000785
    14   -0.000002   -0.000038   -0.001147
    15    0.000043    0.000036    0.008118
   Tot    0.000060    0.000111   -0.048019
   Max    0.041935
   Res    0.010469    sqrt( Sum f_i^2 / 3N )
   Max    0.000081    constrained

Stress tensor Voigt[x,y,z,yz,xz,xy] (kbar):       -3.28       -2.06       -0.47       -0.00        0.12       -1.04
(Free)E + p*V (eV/cell)    -2036.3483
Target enthalpy (eV/cell)    -2039.3223

mulliken: Atomic and Orbital Populations:

[...]

Atom      Orb        Charge      Spin       Svec
    3  3 2Ppy       0.03638   0.00000     -0.000  -0.000  -0.000
    3  4 2Ppz       0.01845   0.00000     -0.000   0.000   0.000
    3  5 2Ppx       0.00948   0.00000      0.000   0.000   0.000
    3     Total     1.19375   0.00000      0.000   0.000  -0.000

[...]

   15  3 2Ppy       0.02321   0.00000      0.000  -0.000   0.000
   15  4 2Ppz       0.03383   0.00000     -0.000  -0.000  -0.000
   15  5 2Ppx       0.02606   0.00000      0.000  -0.000   0.000
   15     Total     0.75436   0.00000      0.000  -0.000  -0.000

[...]

Species: O

Atom      Orb        Charge      Spin       Svec
   10  9 3Pdxy      0.00715   0.00000     -0.000   0.000  -0.000
   10 10 3Pdyz      0.01071   0.00000      0.000  -0.000   0.000
   10 11 3Pdz2      0.00136   0.00000     -0.000  -0.000   0.000
   10 12 3Pdxz     -0.00018   0.00000      0.000   0.000  -0.000
   10 13 3Pdx2-y2   0.00741   0.00000      0.000   0.000  -0.000
   10     Total     6.46391   0.00000     -0.000  -0.000  -0.000

   14  9 3Pdxy      0.00785   0.00000      0.000   0.000  -0.000
   14 10 3Pdyz     -0.00022   0.00000      0.000   0.000  -0.000
   14 11 3Pdz2      0.00136   0.00000      0.000   0.000  -0.000
   14 12 3Pdxz      0.01117   0.00000     -0.000   0.000   0.000
   14 13 3Pdx2-y2   0.00798   0.00000     -0.000   0.000   0.000
   14     Total     6.46445   0.00000     -0.000  -0.000  -0.000

Total              48.00000   0.00000      0.000  -0.000   0.000

outcoor: Relaxed atomic coordinates (Ang):
   -0.72091097    4.52666618    0.00000000   1       1  N
   -2.51564088    4.60051849    0.00000000   2       2  Si
   -2.90040995    6.05473365    0.00000000   3       3  H
   -3.68240572    2.74617003    0.00000000   2       4  Si
   -5.96356556    2.30731156    0.00000000   2       5  Si
   -6.59119571    3.29524031    0.94030528   3       6  H
   -6.06195746    0.89072833    0.51261370   3       7  H
   -6.58851679    2.40458391   -1.36667834   3       8  H
   -2.16978327    1.04694531    0.00000000   2       9  Si
   -2.19885692   -0.53487894    0.00000000   4      10  O
   -0.49294269    1.62638579    0.00000000   1      11  N
    0.17618158    0.80092449    0.00000000   3      12  H
    0.36702009    3.12740005    0.00000000   2      13  Si
    1.93451553    3.11844685    0.00000000   4      14  O
   -0.17692559    5.43415161    0.00000000   3      15  H

siesta: Eigenvalues (eV):
ik =     1
  -22.9253  -22.9253  -22.5042  -22.5042  -21.9001  -21.9001  -21.2387  -21.2387  -15.1825  -15.1825
  -14.2221  -14.2221  -13.6192  -13.6192  -13.2186  -13.2186  -11.9410  -11.9410  -11.4364  -11.4364
  -10.6607  -10.6607   -9.7007   -9.7007   -9.3863   -9.3863   -9.2101   -9.2101   -9.1203   -9.1203
   -8.6099   -8.6099   -8.3574   -8.3574   -8.0774   -8.0774   -7.8494   -7.8494   -7.2930   -7.2930
   -6.8215   -6.8215   -6.6299   -6.6299   -6.3254   -6.3254   -5.8341   -5.8341   -3.6051   -3.6051
   -2.7146   -2.7146   -2.3472   -2.3472   -2.0947   -2.0947   -1.8506   -1.8506   -1.5124   -1.5124
   -1.0206   -1.0206   -0.2112   -0.2112   -0.0602   -0.0602    0.0675    0.0675    0.3957    0.3957
    0.5123    0.5123    0.8208    0.8208    1.2018    1.2018    1.4407    1.4407    1.6238    1.6238
    2.1643    2.1643    2.7398    2.7398    2.9154    2.9154    3.0955    3.0955    3.2896    3.2896
    3.6421    3.6421    4.0386    4.0386    4.4598    4.4598    4.5774    4.5774    4.7293    4.7293
    5.0726    5.0726    5.5517    5.5517    5.6714    5.6714    6.0930    6.0930    6.4736    6.4736
    6.6107    6.6107    6.8666    6.8666    7.1072    7.1072    7.8131    7.8131    7.9429    7.9429
    8.3839    8.3839    8.5871    8.5871    8.6041    8.6041    9.7822    9.7822    9.9984    9.9984
   10.0694   10.0694   10.1298   10.1298   10.7553   10.7553   11.2416   11.2416   11.5063   11.5063
   11.8928   11.8928   11.9959   11.9959   12.3901   12.3901   12.7587   12.7587   13.0055   13.0055
   13.3480   13.3480   13.5439   13.5439   13.6793   13.6793   14.4422   14.4422   14.9086   14.9086
   15.7079   15.7079   16.2233   16.2233   16.5239   16.5239   17.0357   17.0357   17.3562   17.3562
   18.1792   18.1792   18.5040   18.5040   19.9133   19.9133   20.0826   20.0826   20.6948   20.6948
   21.0490   21.0490   21.5908   21.5908   22.5521   22.5521   23.0739   23.0739   23.2516   23.2516
   24.3676   24.3676   25.2552   25.2552   26.0546   26.0546   27.1719   27.1719   28.0391   28.0391
   28.2998   28.2998   28.6200   28.6200   29.8560   29.8560   31.4712   31.4712   31.8223   31.8223
   33.4811   33.4811   34.0337   34.0337   34.2266   34.2266   34.4894   34.4894   35.4734   35.4734
   35.8930   35.8930   36.4406   36.4406   37.6134   37.6134   38.8603   38.8603   38.9846   38.9846
   39.9237   39.9237   41.8713   41.8713   42.0539   42.0539   42.9637   42.9637   44.9518   44.9518
   45.9232   45.9232   47.6822   47.6822   48.0302   48.0302   48.6262   48.6262   49.3724   49.3724
   50.0123   50.0123   50.4796   50.4796   50.7010   50.7010   52.3093   52.3093   54.1010   54.1010
   55.0480   55.0480   55.5602   55.5602   56.4558   56.4558   56.5359   56.5359   58.5772   58.5772
   59.0539   59.0539   62.9022   62.9022   66.4828   66.4828   67.2793   67.2793   68.1251   68.1251
   73.6145   73.6145   91.4101   91.4101   92.5445   92.5445   97.5176   97.5176  100.5713  100.5713
  120.4048  120.4048  135.6238  135.6238
siesta: Fermi energy =      -4.449369 eV

siesta: Program's energy decomposition (eV):
siesta: Ebs     =      -564.128395
siesta: Eions   =      1908.291957
siesta: Ena     =       162.573858
siesta: Ekin    =      1443.715760
siesta: Enl     =     -1207.818527
siesta: Eso     =        -0.002425
siesta: Edftu   =         0.000000
siesta: DEna    =         8.023149
siesta: DUscf   =         6.984389
siesta: DUext   =         0.000000
siesta: Exc     =      -544.506543
siesta: eta*DQ  =         0.000000
siesta: Emadel  =         0.000000
siesta: Emeta   =         0.000000
siesta: Emolmec =         0.000000
siesta: Ekinion =         0.000000
siesta: Eharris =     -2039.322296
siesta: Etot    =     -2039.322296
siesta: FreeEng =     -2039.322296

siesta: Final energy (eV):
siesta:  Band Struct. =    -564.128395
siesta:       Kinetic =    1443.715760
siesta:       Hartree =    3131.007941
siesta:       Edftu   =       0.000000
siesta:       Eso     =      -0.002425
siesta:    Ext. field =       0.000000
siesta:   Exch.-corr. =    -544.506543
siesta:  Ion-electron =   -7563.413497
siesta:       Ion-ion =    1493.876468
siesta:       Ekinion =       0.000000
siesta:         Total =   -2039.322296
siesta:         Fermi =      -4.449369

siesta: Atomic forces (eV/Ang):
siesta:      1    0.000052    0.000013    0.008073
siesta:      2   -0.000072   -0.000010   -0.039589
siesta:      3   -0.000010   -0.000016    0.008275
siesta:      4    0.000004   -0.000039   -0.041935
siesta:      5    0.000014    0.000024    0.025014
siesta:      6   -0.000003    0.000011    0.000020
siesta:      7    0.000011   -0.000002    0.000006
siesta:      8   -0.000040    0.000081   -0.000034
siesta:      9    0.000065   -0.000032   -0.026745
siesta:     10    0.000010    0.000024    0.003178
siesta:     11   -0.000029    0.000032    0.006763
siesta:     12   -0.000019    0.000023    0.002767
siesta:     13    0.000037    0.000004   -0.000785
siesta:     14   -0.000002   -0.000038   -0.001147
siesta:     15    0.000043    0.000036    0.008118
siesta: ----------------------------------------
siesta:    Tot    0.000060    0.000111   -0.048019

siesta: Stress tensor (static) (eV/Ang**3):
siesta:    -0.002050   -0.000648    0.000074
siesta:    -0.000648   -0.001283   -0.000002
siesta:     0.000074   -0.000002   -0.000292

siesta: Cell volume =       2461.748715 Ang**3

siesta: Pressure (static):
siesta:                Solid            Molecule  Units
siesta:           0.00001316          0.00001316  Ry/Bohr**3
siesta:           0.00120808          0.00120801  eV/Ang**3
siesta:           1.93557936          1.93546292  kBar
(Free)E+ p_basis*V_orbitals  =       -2028.876081
(Free)Eharris+ p_basis*V_orbitals  =       -2028.876081
     spin moment: S , {S} =    0.00000   0.00000  -0.00000   0.00000

siesta: Electric dipole (a.u.)  =   -1.934659    2.394243   -0.013717
siesta: Electric dipole (Debye) =   -4.917416    6.085564   -0.034864

cite: Please see "Thymine.bib" for an exhaustive BiBTeX file.
cite: Please clearly indicate Siesta version in published work: v4.1.5-1-g384057250
cite: This calculation has made use of the following articles
cite: which are encouraged to be cited in a published work.
        Primary SIESTA paper
          DOI: www.doi.org/10.1088/0953-8984/14/11/302
        Spin-orbit coupling (on-site approximation)
          DOI: www.doi.org/10.1088/0953-8984/19/19/489001

WARNING: alloc-realloc-dealloc name mismatch
         Name: atomlist isa
         Node:     0
         Subsequent mismatches will not be reported
>> End of run:  16-MAY-2023   1:22:32
Job completed