>> Start of run:  14-MAY-2023   7:19:35

reinit: Reading from standard input
reinit: Dumped input in INPUT_TMP.13758
************************** Dump of input data file ****************************
# mpirun -np 4 siesta-4.1.5 < Thymine.fdf > Thymine.out
SystemLabel      Thymine
NumberOfAtoms    15
NumberOfSpecies  4
%block ChemicalSpeciesLabel
    1    7  N
    2   14  Si
    3    1  H
    4    8  O
%endblock ChemicalSpeciesLabel
# This overrides Defaults.fdf conf
MD.TypeOfRun                CG # CG, Verlet
AtomicCoordinatesFormat NotScaledCartesianAng
%block AtomicCoordinatesAndAtomicSpecies
   -0.56881961    4.34524352    0.00000000   1       1  N
   -2.32992763    4.42637028    0.00000000   2       2  Si
   -2.81141471    5.84109886   -0.00000000   3       3  H
   -3.45564509    2.56877757    0.00000000   2       4  Si
   -5.73539138    2.30796450   -0.00000000   2       5  Si
   -6.28456712    3.33692747    1.01958835   3       6  H
   -5.88421280    0.89031384    0.49090643   3       7  H
   -6.42683766    2.44522620   -1.34450875   3       8  H
   -1.95609568    0.89983937   -0.00000000   2       9  Si
   -2.44373212   -0.60944701   -0.00000000   4      10  O
   -0.23508565    1.50148166    0.00000000   1      11  N
    0.43654497    0.69577738    0.00000000   3      12  H
    0.62647601    3.06631013    0.00000000   2      13  Si
    2.17654236    3.42215836    0.00000000   4      14  O
   -0.07886564    5.28799143    0.00000000   3      15  H
%endblock AtomicCoordinatesAndAtomicSpecies
%include ../../Defaults.fdf
************************** End of input data file *****************************

reinit: -----------------------------------------------------------------------
reinit: System Name:
reinit: -----------------------------------------------------------------------
reinit: System Label: Thymine
reinit: -----------------------------------------------------------------------

initatom: Reading input for the pseudopotentials and atomic orbitals ----------
Species number:   1 Atomic number:    7 Label: N
Species number:   2 Atomic number:   14 Label: Si
Species number:   3 Atomic number:    1 Label: H
Species number:   4 Atomic number:    8 Label: O

Ground state valence configuration:   2s02  2p03
Reading pseudopotential information in formatted form from N.psf

Pseudopotential generated from a relativistic atomic calculation

Valence configuration for pseudopotential generation:
2s( 2.00) rc: 0.94
2p( 3.00) rc: 0.59
3d( 0.00) rc: 3.46
4f( 0.00) rc: 2.47
Ground state valence configuration:   3s02  3p02
Reading pseudopotential information in formatted form from Si.psf

[...]

Valence configuration for pseudopotential generation:
3s( 2.00) rc: 1.67
3p( 2.00) rc: 2.04
3d( 0.00) rc: 2.89
4f( 0.00) rc: 2.49
Ground state valence configuration:   1s01
Reading pseudopotential information in formatted form from H.psf

[...]

Valence configuration for pseudopotential generation:
1s( 1.00) rc: 0.01
2p( 0.00) rc: 0.60
3d( 0.00) rc: 1.99
4f( 0.00) rc: 2.49
Ground state valence configuration:   2s02  2p04
Reading pseudopotential information in formatted form from O.psf

Pseudopotential generated from a relativistic atomic calculation

Valence configuration for pseudopotential generation:
2s( 2.00) rc: 0.45
2p( 4.00) rc: 0.92
3d( 0.00) rc: 2.24
4f( 0.00) rc: 0.25
For N, standard SIESTA heuristics set lmxkb to 3
 (one more than the basis l, including polarization orbitals).
Use PS.lmax or PS.KBprojectors blocks to override.
For Si, standard SIESTA heuristics set lmxkb to 3
 (one more than the basis l, including polarization orbitals).
Use PS.lmax or PS.KBprojectors blocks to override.
For H, standard SIESTA heuristics set lmxkb to 2
 (one more than the basis l, including polarization orbitals).
Use PS.lmax or PS.KBprojectors blocks to override.
For O, standard SIESTA heuristics set lmxkb to 3
 (one more than the basis l, including polarization orbitals).
Use PS.lmax or PS.KBprojectors blocks to override.

<basis_specs>
N                    Z=   7    Mass=  14.010        Charge= 0.17977+309
Lmxo=1 Lmxkb= 3    BasisType=split      Semic=F
L=0  Nsemic=0  Cnfigmx=2
          i=1  nzeta=2  polorb=0  (2s)
            splnorm:   0.28000
               vcte:    0.0000
               rinn:    0.0000
               qcoe:    0.0000
               qyuk:    0.0000
               qwid:   0.10000E-01
                rcs:    0.0000      0.0000
            lambdas:    1.0000      1.0000
L=1  Nsemic=0  Cnfigmx=2
          i=1  nzeta=2  polorb=1  (2p)
            splnorm:   0.28000
               vcte:    0.0000
               rinn:    0.0000
               qcoe:    0.0000
               qyuk:    0.0000
               qwid:   0.10000E-01
                rcs:    0.0000      0.0000
            lambdas:    1.0000      1.0000
L=0  Nkbl=1  erefs: 0.17977+309
L=1  Nkbl=1  erefs: 0.17977+309
L=2  Nkbl=1  erefs: 0.17977+309
L=3  Nkbl=1  erefs: 0.17977+309
</basis_specs>

atom: Called for N                     (Z =   7)

read_vps: Pseudopotential generation method:
read_vps: ATM4.2.7  Troullier-Martins
Valence charge for ps generation:    5.00000

xc_check: Exchange-correlation functional:
xc_check: GGA Perdew, Burke & Ernzerhof 1996
V l=0 = -2*Zval/r beyond r=  1.2889
V l=1 = -2*Zval/r beyond r=  1.2889
V l=2 = -2*Zval/r beyond r=  3.4178
V l=3 = -2*Zval/r beyond r=  2.4084
All V_l potentials equal beyond r=  3.3753
This should be close to max(r_c) in ps generation
All pots = -2*Zval/r beyond r=  3.4178

VLOCAL1: 99.0% of the norm of Vloc inside      3.810 Ry
VLOCAL1: 99.9% of the norm of Vloc inside      8.683 Ry
atom: Maximum radius for 4*pi*r*r*local-pseudopot. charge    4.02088
atom: Maximum radius for r*vlocal+2*Zval:    3.54838
GHOST: No ghost state for L =  0
GHOST: No ghost state for L =  1
GHOST: No ghost state for L =  2
GHOST: No ghost state for L =  3

KBgen: Kleinman-Bylander projectors:
   l= 0   rc=  3.417763   el= -1.365098   Ekb= -4.433130   kbcos= -0.707855
   l= 1   rc=  3.375302   el= -0.521201   Ekb=-13.264039   kbcos= -0.535594
   l= 2   rc=  3.872880   el=  0.001991   Ekb= -0.641094   kbcos= -0.062456
   l= 3   rc=  3.970931   el=  0.003093   Ekb= -0.474517   kbcos= -0.018236

KBgen: Total number of Kleinman-Bylander projectors:   16
atom: -------------------------------------------------------------------------

atom: SANKEY-TYPE ORBITALS:
atom: Selected multiple-zeta basis: split

SPLIT: Orbitals with angular momentum L= 0

SPLIT: Basis orbitals for state 2s

SPLIT: PAO cut-off radius determined from an
SPLIT: energy shift=  0.002000 Ry

   izeta = 1
                 lambda =    1.000000
                     rc =    4.730425
                 energy =   -1.363399
                kinetic =    1.245246
    potential(screened) =   -2.608645
       potential(ionic) =   -8.121105

   izeta = 2
                 rmatch =    2.531849
              splitnorm =    0.280000
                 energy =   -0.959908
                kinetic =    2.409435
    potential(screened) =   -3.369343
       potential(ionic) =   -9.427975

[...]

SPLIT: Basis orbitals for state 2p

[...]

POLgen: Perturbative polarization orbital with L=  2

POLgen: Polarization orbital for state 2p

   izeta = 1
                     rc =    5.924108
                 energy =    1.427508
                kinetic =    2.872379
    potential(screened) =   -1.444871
       potential(ionic) =   -5.563644
atom: Total number of Sankey-type orbitals: 13

atm_pop: Valence configuration (for local Pseudopot. screening):
 2s( 2.00)
 2p( 3.00)
Vna: chval, zval:    5.00000   5.00000

Vna:  Cut-off radius for the neutral-atom potential:   5.924108

atom: _________________________________________________________________________

[...]

KBgen: Kleinman-Bylander projectors:
   l= 0   rc=  3.075247   el= -0.794092   Ekb=  5.879390   kbcos=  0.167461
   l= 1   rc=  3.153101   el= -0.300068   Ekb=  2.642817   kbcos=  0.058301
   l= 2   rc=  3.273594   el=  0.001958   Ekb= -1.185135   kbcos= -0.104411
   l= 3   rc=  3.232927   el=  0.003046   Ekb= -0.497174   kbcos= -0.015889

[...]

<basis_specs>
H                    Z=   1    Mass=  1.0100        Charge= 0.17977+309
Lmxo=0 Lmxkb= 2    BasisType=split      Semic=F
L=0  Nsemic=0  Cnfigmx=1
          i=1  nzeta=2  polorb=1  (1s)
            splnorm:   0.62000
               vcte:    0.0000
               rinn:    0.0000
               qcoe:    0.0000
               qyuk:    0.0000
               qwid:   0.10000E-01
                rcs:    0.0000      0.0000
            lambdas:    1.0000      1.0000
L=0  Nkbl=1  erefs: 0.17977+309
L=1  Nkbl=1  erefs: 0.17977+309
L=2  Nkbl=1  erefs: 0.17977+309
</basis_specs>

[...]

KBgen: Kleinman-Bylander projectors:
   l= 0   rc=  2.036604   el= -0.477180   Ekb= -6.081590   kbcos= -0.277285
   l= 1   rc=  2.195416   el=  0.001076   Ekb= -0.926943   kbcos= -0.034643
   l= 2   rc=  2.251056   el=  0.002010   Ekb= -0.130941   kbcos= -0.009788

[...]

POLgen: Polarization orbital for state 1s

[...]

atm_pop: Valence configuration (for local Pseudopot. screening):
 1s( 1.00)
Vna: chval, zval:    1.00000   1.00000

[...]

<basis_specs>
O                    Z=   8    Mass=  16.000        Charge= 0.17977+309
Lmxo=1 Lmxkb= 3    BasisType=split      Semic=F
L=0  Nsemic=0  Cnfigmx=2
          i=1  nzeta=2  polorb=0  (2s)
            splnorm:   0.28000
               vcte:    0.0000
               rinn:    0.0000
               qcoe:    0.0000
               qyuk:    0.0000
               qwid:   0.10000E-01
                rcs:    0.0000      0.0000
            lambdas:    1.0000      1.0000
L=1  Nsemic=0  Cnfigmx=2
          i=1  nzeta=2  polorb=1  (2p)
            splnorm:   0.28000
               vcte:    0.0000
               rinn:    0.0000
               qcoe:    0.0000
               qyuk:    0.0000
               qwid:   0.10000E-01
                rcs:    0.0000      0.0000
            lambdas:    1.0000      1.0000
L=0  Nkbl=1  erefs: 0.17977+309
L=1  Nkbl=1  erefs: 0.17977+309
L=2  Nkbl=1  erefs: 0.17977+309
L=3  Nkbl=1  erefs: 0.17977+309
</basis_specs>

atom: Called for O                     (Z =   8)

read_vps: Pseudopotential generation method:
read_vps: ATM4.2.7  Troullier-Martins
Valence charge for ps generation:    6.00000

xc_check: Exchange-correlation functional:
xc_check: GGA Perdew, Burke & Ernzerhof 1996
V l=0 = -2*Zval/r beyond r=  1.1000
V l=1 = -2*Zval/r beyond r=  1.1000
V l=2 = -2*Zval/r beyond r=  2.2154
V l=3 = -2*Zval/r beyond r=  1.1000
All V_l potentials equal beyond r=  2.2154
This should be close to max(r_c) in ps generation
All pots = -2*Zval/r beyond r=  2.2154

VLOCAL1: 99.0% of the norm of Vloc inside      8.845 Ry
VLOCAL1: 99.9% of the norm of Vloc inside     20.157 Ry
atom: Maximum radius for 4*pi*r*r*local-pseudopot. charge    2.67231
atom: Maximum radius for r*vlocal+2*Zval:    2.32897
GHOST: No ghost state for L =  0
GHOST: No ghost state for L =  1
GHOST: No ghost state for L =  2
GHOST: No ghost state for L =  3

KBgen: Kleinman-Bylander projectors:
   l= 0   rc=  2.243238   el= -1.759686   Ekb=**********   kbcos= -0.171774
   l= 1   rc=  2.328968   el= -0.663873   Ekb=-14.506792   kbcos= -0.519897
[...]
   scf:   10    -2039.441746    -2039.441746    -2039.441746  0.000002 -4.972695  0.000017
     spin moment: S , {S} =    0.00000   0.00000   0.00000   0.00000
   scf:   11    -2039.441746    -2039.441746    -2039.441746  0.000001 -4.972695  0.000007
     spin moment: S , {S} =    0.00000   0.00000   0.00000   0.00000
   scf:   12    -2039.441746    -2039.441746    -2039.441746  0.000000 -4.972695  0.000002
     spin moment: S , {S} =    0.00000   0.00000   0.00000   0.00000
   scf:   13    -2039.441746    -2039.441746    -2039.441746  0.000000 -4.972695  0.000001
     spin moment: S , {S} =    0.00000   0.00000   0.00000   0.00000

[...]

cgvc: Finished line minimization   71.  Mean atomic displacement =    0.0432

                        Begin CG opt. move =    185

outcoor: Atomic coordinates (Ang):
   -0.58050900    4.44525623    0.05765409   1       1  N
   -2.38905798    4.45373288    0.04077296   2       2  Si
   -2.80549467    5.91597721   -0.00486291   3       3  H
   -3.47249372    2.65212073   -0.72399670   2       4  Si
   -5.71305987    2.27558023   -0.03392300   2       5  Si
   -6.28064991    3.28411914    0.93564522   3       6  H
   -5.96428436    0.88495656    0.50754915   3       7  H
   -6.50034492    2.47362363   -1.31078486   3       8  H
   -2.03754951    0.93931698   -0.11155965   2       9  Si
   -2.45249012   -0.61691460   -0.00088686   4      10  O
   -0.26122674    1.52572059   -0.01990059   1      11  N
    0.43156693    0.71403835    0.00126546   3      12  H
    0.62035698    3.09985010    0.01314579   2      13  Si
    2.18897691    3.44844644    0.00105454   4      14  O
   -0.08987229    5.38934057    0.00152695   3      15  H

outcell: Unit cell vectors (Ang):
       16.852737    0.000000    0.000000
        0.000000   14.157018    0.000000
        0.000000    0.000000   10.200593

outcell: Cell vector modules (Ang)   :   16.852737   14.157018   10.200593
outcell: Cell angles (23,13,12) (deg):     90.0000     90.0000     90.0000
outcell: Cell volume (Ang**3)        :   2433.7035
<dSpData1D:S at geom step 185
  <sparsity:sparsity for geom step 185
    nrows_g=147 nrows=48 sparsity=.3208 nnzs=6933, refcount: 8>
  <dData1D:(new from dSpData1D) n=6933, refcount: 1>
refcount: 1>
new_DM -- step:   186
Re-using DM from previous geometries...
Number of DMs in history: 1
 DM extrapolation coefficients:
1   1.00000
New DM after history re-use:
<dSpData2D:SpM extrapolated using coords
  <sparsity:sparsity for geom step 185
    nrows_g=147 nrows=48 sparsity=.3208 nnzs=6933, refcount: 10>
  <dData2D:(temp array for extrapolation) n=6933 m=8, refcount: 1>
refcount: 1>
     spin moment: S , {S} =    0.00000   0.00000  -0.00000  -0.00000
No. of atoms with KB's overlaping orbs in proc 0. Max # of overlaps:      15     126
New grid distribution:   1
           1       1:   96    1:   40    1:   30
           2       1:   96    1:   40   31:   60
           3       1:   96   41:   80    1:   30
           4       1:   96   41:   80   31:   60

InitMesh: MESH =   192 x   160 x   120 =     3686400
InitMesh: (bp) =    96 x    80 x    60 =      460800
InitMesh: Mesh cutoff (required, used) =   340.000   353.019 Ry
ExtMesh (bp) on 0 =   200 x   144 x   138 =     3974400
New grid distribution:   2
           1       1:   76    1:   18    1:   60
           2      77:   96    1:   19    1:   60
           3       1:   76   19:   80    1:   60
           4      77:   96   20:   80    1:   60
New grid distribution:   3
           1       1:   64    1:   21    1:   60
           2      65:   96    1:   28    1:   60
           3       1:   64   22:   80    1:   60
           4      65:   96   29:   80    1:   60
Setting up quadratic distribution...
ExtMesh (bp) on 0 =   180 x   122 x   168 =     3689280
PhiOnMesh: Number of (b)points on node 0 =                82080
PhiOnMesh: nlist on node 0 =              1329323

        iscf     Eharris(eV)        E_KS(eV)     FreeEng(eV)     dDmax    Ef(eV) dHmax(eV)
   scf:    1    -2039.433673    -2039.443285    -2039.443285  0.011700 -4.807805  0.223213
     spin moment: S , {S} =    0.00000   0.00000   0.00000   0.00000
   scf:    2    -2039.247524    -2039.386348    -2039.386348  0.022588 -4.912202  0.836419
     spin moment: S , {S} =    0.00000   0.00000   0.00000   0.00000
   scf:    3    -2039.462880    -2039.449357    -2039.449357  0.018068 -4.834520  0.035847
     spin moment: S , {S} =    0.00000   0.00000  -0.00000   0.00000
   scf:    4    -2039.449442    -2039.449407    -2039.449407  0.000235 -4.835307  0.014621
     spin moment: S , {S} =    0.00000   0.00000  -0.00000   0.00000
   scf:    5    -2039.449421    -2039.449415    -2039.449415  0.000122 -4.835290  0.005706
     spin moment: S , {S} =    0.00000   0.00000  -0.00000   0.00000
   scf:    6    -2039.449417    -2039.449416    -2039.449416  0.000059 -4.835150  0.001744
     spin moment: S , {S} =    0.00000   0.00000  -0.00000   0.00000
   scf:    7    -2039.449417    -2039.449416    -2039.449416  0.000038 -4.835045  0.000401
     spin moment: S , {S} =    0.00000   0.00000  -0.00000   0.00000
   scf:    8    -2039.449416    -2039.449416    -2039.449416  0.000012 -4.835018  0.000107
     spin moment: S , {S} =    0.00000   0.00000  -0.00000   0.00000
   scf:    9    -2039.449416    -2039.449416    -2039.449416  0.000005 -4.835014  0.000071
     spin moment: S , {S} =    0.00000   0.00000  -0.00000   0.00000
   scf:   10    -2039.449416    -2039.449416    -2039.449416  0.000002 -4.835025  0.000020
     spin moment: S , {S} =    0.00000   0.00000  -0.00000   0.00000
   scf:   11    -2039.449416    -2039.449416    -2039.449416  0.000001 -4.835026  0.000006
     spin moment: S , {S} =    0.00000   0.00000  -0.00000   0.00000
   scf:   12    -2039.449416    -2039.449416    -2039.449416  0.000001 -4.835028  0.000005
     spin moment: S , {S} =    0.00000   0.00000  -0.00000   0.00000
   scf:   13    -2039.449416    -2039.449416    -2039.449416  0.000000 -4.835029  0.000002
     spin moment: S , {S} =    0.00000   0.00000  -0.00000   0.00000
   scf:   14    -2039.449416    -2039.449416    -2039.449416  0.000000 -4.835030  0.000001
     spin moment: S , {S} =    0.00000   0.00000  -0.00000   0.00000

SCF Convergence by DM+H criterion
max |DM_out - DM_in|         :     0.0000001335
max |H_out - H_in|      (eV) :     0.0000006627
SCF cycle converged after 14 iterations

Using DM_out to compute the final energy and forces
No. of atoms with KB's overlaping orbs in proc 0. Max # of overlaps:      15     126

siesta: E_KS(eV) =            -2039.4494
     spin moment: S , {S} =    0.00000   0.00000  -0.00000   0.00000

siesta: Atomic forces (eV/Ang):
     1   -0.049469   -0.021483   -0.070372
     2    0.227511   -0.095012   -0.055861
     3   -0.020671   -0.032501    0.100225
     4   -0.033061   -0.009696    0.040179
     5   -0.205159    0.082280   -0.097014
     6    0.146654    0.062238    0.091151
     7   -0.009190    0.028546    0.038995
     8   -0.025679   -0.093888    0.014191
     9    0.161646   -0.117610    0.090091
    10   -0.499428    0.637677    0.110845
    11    0.065072    0.037030   -0.040764
    12    0.036527   -0.095897    0.027955
    13   -0.028839    0.067637   -0.028689
    14   -0.038941   -0.003421   -0.174348
    15   -0.031700    0.033870    0.038726
   Tot   -0.304727    0.479772    0.085311
   Max    0.637677
   Res    0.146588    sqrt( Sum f_i^2 / 3N )
   Max    0.637677    constrained

Stress tensor Voigt[x,y,z,yz,xz,xy] (kbar):        2.42        2.06       -0.37       -0.16       -0.20        1.48
(Free)E + p*V (eV/cell)    -2041.5306
Target enthalpy (eV/cell)    -2039.4494

mulliken: Atomic and Orbital Populations:

[...]

Atom      Orb        Charge      Spin       Svec
    3  3 2Ppy       0.03669   0.00000      0.000   0.000   0.000
    3  4 2Ppz       0.01473   0.00000     -0.000   0.000   0.000
    3  5 2Ppx       0.00746   0.00000     -0.000  -0.000  -0.000
    3     Total     1.19310   0.00000      0.000   0.000   0.000

[...]

   15  3 2Ppy       0.02321   0.00000     -0.000  -0.000  -0.000
   15  4 2Ppz       0.03325   0.00000      0.000  -0.000   0.000
   15  5 2Ppx       0.02521   0.00000      0.000   0.000   0.000
   15     Total     0.75224   0.00000     -0.000  -0.000   0.000

[...]

Species: O

Atom      Orb        Charge      Spin       Svec
   10  9 3Pdxy      0.00786   0.00000     -0.000   0.000   0.000
   10 10 3Pdyz      0.00943   0.00000     -0.000   0.000   0.000
   10 11 3Pdz2      0.00191   0.00000      0.000  -0.000   0.000
   10 12 3Pdxz      0.00064   0.00000     -0.000  -0.000   0.000
   10 13 3Pdx2-y2   0.00698   0.00000     -0.000  -0.000   0.000
   10     Total     6.45346   0.00000     -0.000  -0.000  -0.000

   14  9 3Pdxy      0.00804   0.00000     -0.000   0.000  -0.000
   14 10 3Pdyz      0.00032   0.00000     -0.000   0.000   0.000
   14 11 3Pdz2      0.00168   0.00000     -0.000   0.000   0.000
   14 12 3Pdxz      0.01007   0.00000     -0.000   0.000   0.000
   14 13 3Pdx2-y2   0.00762   0.00000     -0.000  -0.000  -0.000
   14     Total     6.45255   0.00000      0.000  -0.000   0.000

Total              48.00000   0.00000      0.000  -0.000   0.000

outcoor: Final (unrelaxed) atomic coordinates (Ang):
   -0.58050900    4.44525623    0.05765409   1       1  N
   -2.38905798    4.45373288    0.04077296   2       2  Si
   -2.80549467    5.91597721   -0.00486291   3       3  H
   -3.47249372    2.65212073   -0.72399670   2       4  Si
   -5.71305987    2.27558023   -0.03392300   2       5  Si
   -6.28064991    3.28411914    0.93564522   3       6  H
   -5.96428436    0.88495656    0.50754915   3       7  H
   -6.50034492    2.47362363   -1.31078486   3       8  H
   -2.03754951    0.93931698   -0.11155965   2       9  Si
   -2.45249012   -0.61691460   -0.00088686   4      10  O
   -0.26122674    1.52572059   -0.01990059   1      11  N
    0.43156693    0.71403835    0.00126546   3      12  H
    0.62035698    3.09985010    0.01314579   2      13  Si
    2.18897691    3.44844644    0.00105454   4      14  O
   -0.08987229    5.38934057    0.00152695   3      15  H

siesta: Eigenvalues (eV):
ik =     1
  -22.9181  -22.9181  -22.5302  -22.5302  -21.7322  -21.7322  -21.2047  -21.2047  -14.9788  -14.9788
  -13.9183  -13.9183  -13.4980  -13.4980  -13.1132  -13.1132  -11.8433  -11.8433  -11.3345  -11.3345
  -10.5151  -10.5151   -9.6032   -9.6032   -9.0314   -9.0314   -9.0138   -9.0138   -9.0066   -9.0066
   -8.6958   -8.6958   -8.2218   -8.2218   -8.0055   -8.0055   -7.7824   -7.7824   -7.3933   -7.3933
   -6.9848   -6.9848   -6.8910   -6.8910   -6.5473   -6.5473   -6.0436   -6.0436   -3.8986   -3.8986
   -2.6497   -2.6497   -2.5993   -2.5993   -2.4099   -2.4099   -1.8753   -1.8753   -1.4533   -1.4533
   -1.3458   -1.3458   -0.6084   -0.6084   -0.0605   -0.0605    0.2564    0.2564    0.3394    0.3394
    0.7775    0.7775    0.9696    0.9696    1.1996    1.1996    1.4009    1.4009    1.5092    1.5092
    2.0841    2.0841    2.1047    2.1047    2.5377    2.5377    3.0305    3.0305    3.2919    3.2919
    3.3859    3.3859    3.5982    3.5982    4.1475    4.1475    4.2262    4.2262    4.7597    4.7597
    5.1634    5.1634    5.2684    5.2684    5.5082    5.5082    5.7841    5.7841    6.1816    6.1816
    6.4335    6.4335    6.7621    6.7621    6.9720    6.9720    7.5275    7.5275    7.7027    7.7027
    7.7820    7.7820    8.0666    8.0666    8.5163    8.5163    8.7457    8.7457    9.4028    9.4028
    9.7170    9.7170   10.1808   10.1808   10.4004   10.4004   10.6948   10.6948   11.1152   11.1152
   11.3752   11.3752   11.5718   11.5718   12.0816   12.0816   12.2853   12.2853   12.4814   12.4814
   12.7290   12.7290   13.4409   13.4409   13.7145   13.7145   14.2131   14.2131   15.1985   15.1985
   15.2556   15.2556   15.8632   15.8632   16.6591   16.6591   17.1361   17.1361   17.6167   17.6167
   17.9569   17.9569   18.1279   18.1279   19.4961   19.4961   20.0418   20.0418   20.5187   20.5187
   20.6576   20.6576   21.3781   21.3781   21.9555   21.9555   22.6176   22.6176   22.8942   22.8942
   23.7472   23.7472   24.8918   24.8918   25.3551   25.3551   25.8264   25.8264   26.4546   26.4546
   27.6899   27.6899   28.3005   28.3005   28.3968   28.3968   29.6338   29.6338   30.4021   30.4021
   32.9037   32.9037   33.2618   33.2618   33.9035   33.9035   34.0485   34.0485   34.1939   34.1939
   34.9728   34.9728   35.8687   35.8687   36.6832   36.6832   37.8517   37.8517   38.4540   38.4540
   39.0517   39.0517   40.1399   40.1399   41.2407   41.2407   42.2952   42.2952   44.2428   44.2428
   45.5007   45.5007   46.5839   46.5839   47.2022   47.2022   48.2923   48.2923   49.8873   49.8873
   50.2502   50.2502   50.4715   50.4715   50.9821   50.9821   51.3552   51.3552   52.0569   52.0569
   53.8902   53.8902   54.2614   54.2614   54.9869   54.9869   55.8673   55.8673   56.8750   56.8750
   57.2494   57.2494   62.3542   62.3542   65.3665   65.3665   65.6326   65.6326   67.3489   67.3489
   68.2301   68.2301   84.9782   84.9782   88.3700   88.3700   95.5307   95.5307   99.0796   99.0796
  116.6091  116.6091  132.2783  132.2783
siesta: Fermi energy =      -4.835030 eV

siesta: Program's energy decomposition (eV):
siesta: Ebs     =      -561.614059
siesta: Eions   =      1908.291957
siesta: Ena     =       159.815339
siesta: Ekin    =      1431.114337
siesta: Enl     =     -1195.872352
siesta: Eso     =        -0.002269
siesta: Edftu   =         0.000000
siesta: DEna    =         8.022172
siesta: DUscf   =         6.558230
siesta: DUext   =         0.000000
siesta: Exc     =      -540.792917
siesta: eta*DQ  =         0.000000
siesta: Emadel  =         0.000000
siesta: Emeta   =         0.000000
siesta: Emolmec =         0.000000
siesta: Ekinion =         0.000000
siesta: Eharris =     -2039.449416
siesta: Etot    =     -2039.449416
siesta: FreeEng =     -2039.449416

siesta: Final energy (eV):
siesta:  Band Struct. =    -561.614059
siesta:       Kinetic =    1431.114337
siesta:       Hartree =    3036.646331
siesta:       Edftu   =       0.000000
siesta:       Eso     =      -0.002269
siesta:    Ext. field =       0.000000
siesta:   Exch.-corr. =    -540.792917
siesta:  Ion-electron =   -7364.467385
siesta:       Ion-ion =    1398.052487
siesta:       Ekinion =       0.000000
siesta:         Total =   -2039.449416
siesta:         Fermi =      -4.835030

siesta: Atomic forces (eV/Ang):
siesta:      1   -0.049469   -0.021483   -0.070372
siesta:      2    0.227511   -0.095012   -0.055861
siesta:      3   -0.020671   -0.032501    0.100225
siesta:      4   -0.033061   -0.009696    0.040179
siesta:      5   -0.205159    0.082280   -0.097014
siesta:      6    0.146654    0.062238    0.091151
siesta:      7   -0.009190    0.028546    0.038995
siesta:      8   -0.025679   -0.093888    0.014191
siesta:      9    0.161646   -0.117610    0.090091
siesta:     10   -0.499428    0.637677    0.110845
siesta:     11    0.065072    0.037030   -0.040764
siesta:     12    0.036527   -0.095897    0.027955
siesta:     13   -0.028839    0.067637   -0.028689
siesta:     14   -0.038941   -0.003421   -0.174348
siesta:     15   -0.031700    0.033870    0.038726
siesta: ----------------------------------------
siesta:    Tot   -0.304727    0.479772    0.085311

siesta: Stress tensor (static) (eV/Ang**3):
siesta:     0.001513    0.000926   -0.000127
siesta:     0.000926    0.001284   -0.000099
siesta:    -0.000127   -0.000099   -0.000232

siesta: Cell volume =       2433.703456 Ang**3

siesta: Pressure (static):
siesta:                Solid            Molecule  Units
siesta:          -0.00000931         -0.00000672  Ry/Bohr**3
siesta:          -0.00085517         -0.00061685  eV/Ang**3
siesta:          -1.37014815         -0.98831995  kBar
(Free)E+ p_basis*V_orbitals  =       -2029.003201
(Free)Eharris+ p_basis*V_orbitals  =       -2029.003201
     spin moment: S , {S} =    0.00000   0.00000  -0.00000   0.00000

siesta: Electric dipole (a.u.)  =   -1.184350    1.916148    0.000544
siesta: Electric dipole (Debye) =   -3.010321    4.870366    0.001383

cite: Please see "Thymine.bib" for an exhaustive BiBTeX file.
cite: Please clearly indicate Siesta version in published work: v4.1.5-1-g384057250
cite: This calculation has made use of the following articles
cite: which are encouraged to be cited in a published work.
        Primary SIESTA paper
          DOI: www.doi.org/10.1088/0953-8984/14/11/302
        Spin-orbit coupling (on-site approximation)
          DOI: www.doi.org/10.1088/0953-8984/19/19/489001

WARNING: alloc-realloc-dealloc name mismatch
         Name: atomlist isa
         Node:     0
         Subsequent mismatches will not be reported
>> End of run:  14-MAY-2023  10:04:16
Job completed