>> Start of run:   1-JUN-2023   6:25:30

reinit: Reading from standard input
reinit: Dumped input in INPUT_TMP.50019
************************** Dump of input data file ****************************
# mpirun -np 4 siesta-4.1.5 < Thymine.fdf > Thymine.out
SystemLabel      Thymine
NumberOfAtoms    15
NumberOfSpecies  4
%block ChemicalSpeciesLabel
    1    7  N
    2   14  Si
    3    1  H
    4    8  O
%endblock ChemicalSpeciesLabel
# This overrides Defaults.fdf conf
MD.TypeOfRun                CG # CG, Verlet
AtomicCoordinatesFormat NotScaledCartesianAng
%block AtomicCoordinatesAndAtomicSpecies
   -0.72091097    4.52666618    0.00000000   1       1  N
   -2.51564088    4.60051849    0.00000000   2       2  Si
   -2.90040995    6.05473365    0.00000000   3       3  H
   -3.68240572    2.74617003    0.00000000   2       4  Si
   -5.96356556    2.30731156    0.00000000   2       5  Si
   -6.59119571    3.29524031    0.94030528   3       6  H
   -6.06195746    0.89072833    0.51261370   3       7  H
   -6.58851679    2.40458391   -1.36667834   3       8  H
   -2.16978327    1.04694531    0.00000000   2       9  Si
   -2.19885692   -0.53487894    0.00000000   4      10  O
   -0.49294269    1.62638579    0.00000000   1      11  N
    0.17618158    0.80092449    0.00000000   3      12  H
    0.36702009    3.12740005    0.00000000   2      13  Si
    1.93451553    3.11844685    0.00000000   4      14  O
   -0.17692559    5.43415161    0.00000000   3      15  H
%endblock AtomicCoordinatesAndAtomicSpecies
%block Geometry.Constraints
    atom all 0.0 0.0 1.0 # constrain along z Cartesian vector
    clear-prev [6 -- 8]
%endblock
%include ../../Defaults.fdf
************************** End of input data file *****************************

reinit: -----------------------------------------------------------------------
reinit: System Name:
reinit: -----------------------------------------------------------------------
reinit: System Label: Thymine
reinit: -----------------------------------------------------------------------

initatom: Reading input for the pseudopotentials and atomic orbitals ----------
Species number:   1 Atomic number:    7 Label: N
Species number:   2 Atomic number:   14 Label: Si
Species number:   3 Atomic number:    1 Label: H
Species number:   4 Atomic number:    8 Label: O

Ground state valence configuration:   2s02  2p03
Reading pseudopotential information in formatted form from N.psf

Pseudopotential generated from a relativistic atomic calculation

Valence configuration for pseudopotential generation:
2s( 2.00) rc: 0.94
2p( 3.00) rc: 0.59
3d( 0.00) rc: 3.46
4f( 0.00) rc: 2.47
Ground state valence configuration:   3s02  3p02
Reading pseudopotential information in formatted form from Si.psf

[...]

Valence configuration for pseudopotential generation:
3s( 2.00) rc: 1.67
3p( 2.00) rc: 2.04
3d( 0.00) rc: 2.89
4f( 0.00) rc: 2.49
Ground state valence configuration:   1s01
Reading pseudopotential information in formatted form from H.psf

[...]

Valence configuration for pseudopotential generation:
1s( 1.00) rc: 0.01
2p( 0.00) rc: 0.60
3d( 0.00) rc: 1.99
4f( 0.00) rc: 2.49
Ground state valence configuration:   2s02  2p04
Reading pseudopotential information in formatted form from O.psf

Pseudopotential generated from a relativistic atomic calculation

Valence configuration for pseudopotential generation:
2s( 2.00) rc: 0.45
2p( 4.00) rc: 0.92
3d( 0.00) rc: 2.24
4f( 0.00) rc: 0.25
For N, standard SIESTA heuristics set lmxkb to 3
 (one more than the basis l, including polarization orbitals).
Use PS.lmax or PS.KBprojectors blocks to override.
For Si, standard SIESTA heuristics set lmxkb to 3
 (one more than the basis l, including polarization orbitals).
Use PS.lmax or PS.KBprojectors blocks to override.
For H, standard SIESTA heuristics set lmxkb to 2
 (one more than the basis l, including polarization orbitals).
Use PS.lmax or PS.KBprojectors blocks to override.
For O, standard SIESTA heuristics set lmxkb to 3
 (one more than the basis l, including polarization orbitals).
Use PS.lmax or PS.KBprojectors blocks to override.

<basis_specs>
N                    Z=   7    Mass=  14.010        Charge= 0.17977+309
Lmxo=1 Lmxkb= 3    BasisType=split      Semic=F
L=0  Nsemic=0  Cnfigmx=2
          i=1  nzeta=2  polorb=0  (2s)
            splnorm:   0.28000
               vcte:    0.0000
               rinn:    0.0000
               qcoe:    0.0000
               qyuk:    0.0000
               qwid:   0.10000E-01
                rcs:    0.0000      0.0000
            lambdas:    1.0000      1.0000
L=1  Nsemic=0  Cnfigmx=2
          i=1  nzeta=2  polorb=1  (2p)
            splnorm:   0.28000
               vcte:    0.0000
               rinn:    0.0000
               qcoe:    0.0000
               qyuk:    0.0000
               qwid:   0.10000E-01
                rcs:    0.0000      0.0000
            lambdas:    1.0000      1.0000
L=0  Nkbl=1  erefs: 0.17977+309
L=1  Nkbl=1  erefs: 0.17977+309
L=2  Nkbl=1  erefs: 0.17977+309
L=3  Nkbl=1  erefs: 0.17977+309
</basis_specs>

atom: Called for N                     (Z =   7)

read_vps: Pseudopotential generation method:
read_vps: ATM4.2.7  Troullier-Martins
Valence charge for ps generation:    5.00000

xc_check: Exchange-correlation functional:
xc_check: GGA Perdew, Burke & Ernzerhof 1996
V l=0 = -2*Zval/r beyond r=  1.2889
V l=1 = -2*Zval/r beyond r=  1.2889
V l=2 = -2*Zval/r beyond r=  3.4178
V l=3 = -2*Zval/r beyond r=  2.4084
All V_l potentials equal beyond r=  3.3753
This should be close to max(r_c) in ps generation
All pots = -2*Zval/r beyond r=  3.4178

VLOCAL1: 99.0% of the norm of Vloc inside      3.810 Ry
VLOCAL1: 99.9% of the norm of Vloc inside      8.683 Ry
atom: Maximum radius for 4*pi*r*r*local-pseudopot. charge    4.02088
atom: Maximum radius for r*vlocal+2*Zval:    3.54838
GHOST: No ghost state for L =  0
GHOST: No ghost state for L =  1
GHOST: No ghost state for L =  2
GHOST: No ghost state for L =  3

KBgen: Kleinman-Bylander projectors:
   l= 0   rc=  3.417763   el= -1.365098   Ekb= -4.433130   kbcos= -0.707855
   l= 1   rc=  3.375302   el= -0.521201   Ekb=-13.264039   kbcos= -0.535594
   l= 2   rc=  3.872880   el=  0.001991   Ekb= -0.641094   kbcos= -0.062456
   l= 3   rc=  3.970931   el=  0.003093   Ekb= -0.474517   kbcos= -0.018236

KBgen: Total number of Kleinman-Bylander projectors:   16
atom: -------------------------------------------------------------------------

atom: SANKEY-TYPE ORBITALS:
atom: Selected multiple-zeta basis: split

SPLIT: Orbitals with angular momentum L= 0

SPLIT: Basis orbitals for state 2s

SPLIT: PAO cut-off radius determined from an
SPLIT: energy shift=  0.002000 Ry

   izeta = 1
                 lambda =    1.000000
                     rc =    4.730425
                 energy =   -1.363399
                kinetic =    1.245246
    potential(screened) =   -2.608645
       potential(ionic) =   -8.121105

   izeta = 2
                 rmatch =    2.531849
              splitnorm =    0.280000
                 energy =   -0.959908
                kinetic =    2.409435
    potential(screened) =   -3.369343
       potential(ionic) =   -9.427975

[...]

SPLIT: Basis orbitals for state 2p

[...]

POLgen: Perturbative polarization orbital with L=  2

POLgen: Polarization orbital for state 2p

   izeta = 1
                     rc =    5.924108
                 energy =    1.427508
                kinetic =    2.872379
    potential(screened) =   -1.444871
       potential(ionic) =   -5.563644
atom: Total number of Sankey-type orbitals: 13

atm_pop: Valence configuration (for local Pseudopot. screening):
 2s( 2.00)
 2p( 3.00)
Vna: chval, zval:    5.00000   5.00000

Vna:  Cut-off radius for the neutral-atom potential:   5.924108

atom: _________________________________________________________________________

[...]

KBgen: Kleinman-Bylander projectors:
   l= 0   rc=  3.075247   el= -0.794092   Ekb=  5.879390   kbcos=  0.167461
   l= 1   rc=  3.153101   el= -0.300068   Ekb=  2.642817   kbcos=  0.058301
   l= 2   rc=  3.273594   el=  0.001958   Ekb= -1.185135   kbcos= -0.104411
   l= 3   rc=  3.232927   el=  0.003046   Ekb= -0.497174   kbcos= -0.015889

[...]

<basis_specs>
H                    Z=   1    Mass=  1.0100        Charge= 0.17977+309
Lmxo=0 Lmxkb= 2    BasisType=split      Semic=F
L=0  Nsemic=0  Cnfigmx=1
          i=1  nzeta=2  polorb=1  (1s)
            splnorm:   0.62000
               vcte:    0.0000
               rinn:    0.0000
               qcoe:    0.0000
               qyuk:    0.0000
               qwid:   0.10000E-01
                rcs:    0.0000      0.0000
            lambdas:    1.0000      1.0000
L=0  Nkbl=1  erefs: 0.17977+309
L=1  Nkbl=1  erefs: 0.17977+309
L=2  Nkbl=1  erefs: 0.17977+309
</basis_specs>

[...]

KBgen: Kleinman-Bylander projectors:
   l= 0   rc=  2.036604   el= -0.477180   Ekb= -6.081590   kbcos= -0.277285
   l= 1   rc=  2.195416   el=  0.001076   Ekb= -0.926943   kbcos= -0.034643
   l= 2   rc=  2.251056   el=  0.002010   Ekb= -0.130941   kbcos= -0.009788

[...]

POLgen: Polarization orbital for state 1s

[...]

atm_pop: Valence configuration (for local Pseudopot. screening):
 1s( 1.00)
Vna: chval, zval:    1.00000   1.00000

[...]

<basis_specs>
O                    Z=   8    Mass=  16.000        Charge= 0.17977+309
Lmxo=1 Lmxkb= 3    BasisType=split      Semic=F
L=0  Nsemic=0  Cnfigmx=2
          i=1  nzeta=2  polorb=0  (2s)
            splnorm:   0.28000
               vcte:    0.0000
               rinn:    0.0000
               qcoe:    0.0000
               qyuk:    0.0000
               qwid:   0.10000E-01
                rcs:    0.0000      0.0000
            lambdas:    1.0000      1.0000
L=1  Nsemic=0  Cnfigmx=2
          i=1  nzeta=2  polorb=1  (2p)
            splnorm:   0.28000
               vcte:    0.0000
               rinn:    0.0000
               qcoe:    0.0000
               qyuk:    0.0000
               qwid:   0.10000E-01
                rcs:    0.0000      0.0000
            lambdas:    1.0000      1.0000
L=0  Nkbl=1  erefs: 0.17977+309
L=1  Nkbl=1  erefs: 0.17977+309
L=2  Nkbl=1  erefs: 0.17977+309
L=3  Nkbl=1  erefs: 0.17977+309
</basis_specs>

atom: Called for O                     (Z =   8)

read_vps: Pseudopotential generation method:
read_vps: ATM4.2.7  Troullier-Martins
Valence charge for ps generation:    6.00000

xc_check: Exchange-correlation functional:
xc_check: GGA Perdew, Burke & Ernzerhof 1996
V l=0 = -2*Zval/r beyond r=  1.1000
V l=1 = -2*Zval/r beyond r=  1.1000
V l=2 = -2*Zval/r beyond r=  2.2154
V l=3 = -2*Zval/r beyond r=  1.1000
All V_l potentials equal beyond r=  2.2154
This should be close to max(r_c) in ps generation
All pots = -2*Zval/r beyond r=  2.2154

VLOCAL1: 99.0% of the norm of Vloc inside      8.845 Ry
VLOCAL1: 99.9% of the norm of Vloc inside     20.157 Ry
atom: Maximum radius for 4*pi*r*r*local-pseudopot. charge    2.67231
atom: Maximum radius for r*vlocal+2*Zval:    2.32897
GHOST: No ghost state for L =  0
GHOST: No ghost state for L =  1
GHOST: No ghost state for L =  2
GHOST: No ghost state for L =  3

KBgen: Kleinman-Bylander projectors:
[...]
     spin moment: S , {S} =    0.00000   0.00000  -0.00000  -0.00000
   scf:    2    -2039.152171    -2039.152173    -2039.152173  0.000070 -4.462481  0.006116
     spin moment: S , {S} =    0.00000   0.00000  -0.00000  -0.00000
   scf:    3    -2039.152174    -2039.152174    -2039.152174  0.000058 -4.462139  0.000201
     spin moment: S , {S} =    0.00000   0.00000  -0.00000  -0.00000
   scf:    4    -2039.152174    -2039.152174    -2039.152174  0.000002 -4.462153  0.000050
     spin moment: S , {S} =    0.00000   0.00000  -0.00000  -0.00000
   scf:    5    -2039.152174    -2039.152174    -2039.152174  0.000001 -4.462160  0.000022
     spin moment: S , {S} =    0.00000   0.00000  -0.00000  -0.00000
   scf:    6    -2039.152174    -2039.152174    -2039.152174  0.000000 -4.462163  0.000008
     spin moment: S , {S} =    0.00000   0.00000  -0.00000  -0.00000
   scf:    7    -2039.152174    -2039.152174    -2039.152174  0.000000 -4.462164  0.000002
     spin moment: S , {S} =    0.00000   0.00000  -0.00000  -0.00000
   scf:    8    -2039.152174    -2039.152174    -2039.152174  0.000000 -4.462165  0.000001
     spin moment: S , {S} =    0.00000   0.00000  -0.00000  -0.00000

[...]

cgvc: Finished line minimization   67.  Mean atomic displacement =    0.0002

                        Begin CG opt. move =    169

outcoor: Atomic coordinates (Ang):
   -0.82239862    4.58780334    0.00000000   1       1  N
   -2.62463744    4.60416112    0.00000000   2       2  Si
   -3.06631349    6.04679752    0.00000000   3       3  H
   -3.77920784    2.74083375    0.00000000   2       4  Si
   -6.06168489    2.30743879    0.00000000   2       5  Si
   -6.83179268    3.20227915    0.93785397   3       6  H
   -6.04622585    0.88841281    0.51077188   3       7  H
   -6.65895127    2.40025259   -1.37004671   3       8  H
   -2.23886917    1.04527385    0.00000000   2       9  Si
   -2.10613192   -0.53434110    0.00000000   4      10  O
   -0.59908753    1.70363922    0.00000000   1      11  N
    0.08765322    0.88936893    0.00000000   3      12  H
    0.27871642    3.18841940    0.00000000   2      13  Si
    1.84139378    3.02718779    0.00000000   4      14  O
   -0.34200111    5.52884064    0.00000000   3      15  H

outcell: Unit cell vectors (Ang):
       16.818328    0.000000    0.000000
        0.000000   14.230200    0.000000
        0.000000    0.000000   10.224979

outcell: Cell vector modules (Ang)   :   16.818328   14.230200   10.224979
outcell: Cell angles (23,13,12) (deg):     90.0000     90.0000     90.0000
outcell: Cell volume (Ang**3)        :   2447.1255
<dSpData1D:S at geom step 169
  <sparsity:sparsity for geom step 169
    nrows_g=147 nrows=27 sparsity=.1811 nnzs=3914, refcount: 8>
  <dData1D:(new from dSpData1D) n=3914, refcount: 1>
refcount: 1>
new_DM -- step:   170
Re-using DM from previous geometries...
Number of DMs in history: 1
 DM extrapolation coefficients:
1   1.00000
New DM after history re-use:
<dSpData2D:SpM extrapolated using coords
  <sparsity:sparsity for geom step 169
    nrows_g=147 nrows=27 sparsity=.1811 nnzs=3914, refcount: 10>
  <dData2D:(temp array for extrapolation) n=3914 m=8, refcount: 1>
refcount: 1>
     spin moment: S , {S} =    0.00000   0.00000  -0.00000  -0.00000
No. of atoms with KB's overlaping orbs in proc 0. Max # of overlaps:      15     132
New grid distribution:   1
           1       1:   96    1:   40    1:   20
           2       1:   96    1:   40   21:   40
           3       1:   96    1:   40   41:   60
           4       1:   96   41:   80    1:   20
           5       1:   96   41:   80   21:   40
           6       1:   96   41:   80   41:   60

InitMesh: MESH =   192 x   160 x   120 =     3686400
InitMesh: (bp) =    96 x    80 x    60 =      460800
InitMesh: Mesh cutoff (required, used) =   340.000   349.397 Ry
ExtMesh (bp) on 0 =   200 x   144 x   128 =     3686400
New grid distribution:   2
           1       1:   77    1:   13    1:   60
           2      78:   96   15:   80    1:   20
           3      78:   96    1:   14    1:   60
           4       1:   77   14:   80    1:   20
           5       1:   77   14:   80   21:   60
           6      78:   96   15:   80   21:   60
New grid distribution:   3
           1       1:   64    1:   15    1:   60
           2      65:   96   20:   80    1:   25
           3      65:   96    1:   19    1:   60
           4       1:   64   16:   80    1:   23
           5      65:   96   20:   80   26:   60
           6       1:   64   16:   80   24:   60
Setting up quadratic distribution...
ExtMesh (bp) on 0 =   181 x   117 x   168 =     3557736
PhiOnMesh: Number of (b)points on node 0 =                60060
PhiOnMesh: nlist on node 0 =               927020

        iscf     Eharris(eV)        E_KS(eV)     FreeEng(eV)     dDmax    Ef(eV) dHmax(eV)
   scf:    1    -2039.151737    -2039.152176    -2039.152176  0.000044 -4.462461  0.002356
     spin moment: S , {S} =    0.00000   0.00000  -0.00000  -0.00000
   scf:    2    -2039.152166    -2039.152173    -2039.152173  0.000111 -4.461043  0.009357
     spin moment: S , {S} =    0.00000   0.00000  -0.00000  -0.00000
   scf:    3    -2039.152177    -2039.152176    -2039.152176  0.000093 -4.462023  0.000236
     spin moment: S , {S} =    0.00000   0.00000  -0.00000  -0.00000
   scf:    4    -2039.152176    -2039.152176    -2039.152176  0.000003 -4.461994  0.000116
     spin moment: S , {S} =    0.00000   0.00000  -0.00000  -0.00000
   scf:    5    -2039.152176    -2039.152176    -2039.152176  0.000002 -4.461983  0.000043
     spin moment: S , {S} =    0.00000   0.00000  -0.00000  -0.00000
   scf:    6    -2039.152176    -2039.152176    -2039.152176  0.000001 -4.461981  0.000020
     spin moment: S , {S} =    0.00000   0.00000  -0.00000  -0.00000
   scf:    7    -2039.152176    -2039.152176    -2039.152176  0.000001 -4.461980  0.000003
     spin moment: S , {S} =    0.00000   0.00000  -0.00000  -0.00000
   scf:    8    -2039.152176    -2039.152176    -2039.152176  0.000000 -4.461980  0.000002
     spin moment: S , {S} =    0.00000   0.00000  -0.00000  -0.00000
   scf:    9    -2039.152176    -2039.152176    -2039.152176  0.000000 -4.461979  0.000000
     spin moment: S , {S} =    0.00000   0.00000  -0.00000  -0.00000

SCF Convergence by DM+H criterion
max |DM_out - DM_in|         :     0.0000000408
max |H_out - H_in|      (eV) :     0.0000004373
SCF cycle converged after 9 iterations

Using DM_out to compute the final energy and forces
No. of atoms with KB's overlaping orbs in proc 0. Max # of overlaps:      15     132

siesta: E_KS(eV) =            -2039.1522
     spin moment: S , {S} =    0.00000   0.00000  -0.00000  -0.00000

siesta: Atomic forces (eV/Ang):
     1   -0.000351    0.000003    0.007321
     2   -0.001263    0.003550   -0.042504
     3    0.000159    0.001506    0.011267
     4    0.004742    0.000494   -0.001510
     5    0.000814   -0.000970    0.198780
     6   -0.001077    0.000901   -0.002025
     7    0.000064   -0.000263    0.000358
     8   -0.002963    0.003476    0.001854
     9    0.000157   -0.000006    0.002018
    10    0.002815   -0.003513   -0.000338
    11   -0.000991    0.001478    0.000476
    12    0.002132   -0.001641    0.000835
    13   -0.002168    0.000649   -0.000568
    14    0.002187    0.000092   -0.000602
    15   -0.003576    0.000338    0.006430
   Tot    0.000681    0.006094    0.181790
   Max    0.198780
   Res    0.030432    sqrt( Sum f_i^2 / 3N )
   Max    0.004742    constrained

Stress tensor Voigt[x,y,z,yz,xz,xy] (kbar):       -3.02       -1.96       -0.54       -0.03       -0.03       -2.02
(Free)E + p*V (eV/cell)    -2036.3436
Target enthalpy (eV/cell)    -2039.1522

mulliken: Atomic and Orbital Populations:

[...]

Atom      Orb        Charge      Spin       Svec
    3  3 2Ppy       0.03609   0.00000     -0.000   0.000   0.000
    3  4 2Ppz       0.01834   0.00000     -0.000  -0.000   0.000
    3  5 2Ppx       0.01007   0.00000     -0.000  -0.000   0.000
    3     Total     1.19440   0.00000      0.000  -0.000   0.000

[...]

   15  3 2Ppy       0.02388   0.00000      0.000   0.000   0.000
   15  4 2Ppz       0.03478   0.00000      0.000   0.000   0.000
   15  5 2Ppx       0.02497   0.00000      0.000   0.000   0.000
   15     Total     0.75656   0.00000      0.000   0.000  -0.000

[...]

Species: O

Atom      Orb        Charge      Spin       Svec
   10  9 3Pdxy      0.00729   0.00000      0.000  -0.000   0.000
   10 10 3Pdyz      0.01047   0.00000      0.000  -0.000   0.000
   10 11 3Pdz2      0.00129   0.00000      0.000   0.000  -0.000
   10 12 3Pdxz     -0.00007   0.00000     -0.000   0.000  -0.000
   10 13 3Pdx2-y2   0.00725   0.00000      0.000  -0.000   0.000
   10     Total     6.46337   0.00000     -0.000   0.000  -0.000

   14  9 3Pdxy      0.00808   0.00000      0.000  -0.000  -0.000
   14 10 3Pdyz     -0.00004   0.00000      0.000   0.000  -0.000
   14 11 3Pdz2      0.00135   0.00000     -0.000   0.000   0.000
   14 12 3Pdxz      0.01089   0.00000      0.000  -0.000   0.000
   14 13 3Pdx2-y2   0.00772   0.00000     -0.000  -0.000   0.000
   14     Total     6.46049   0.00000     -0.000   0.000  -0.000

Total              48.00000   0.00000      0.000  -0.000  -0.000

outcoor: Relaxed atomic coordinates (Ang):
   -0.82239862    4.58780334    0.00000000   1       1  N
   -2.62463744    4.60416112    0.00000000   2       2  Si
   -3.06631349    6.04679752    0.00000000   3       3  H
   -3.77920784    2.74083375    0.00000000   2       4  Si
   -6.06168489    2.30743879    0.00000000   2       5  Si
   -6.83179268    3.20227915    0.93785397   3       6  H
   -6.04622585    0.88841281    0.51077188   3       7  H
   -6.65895127    2.40025259   -1.37004671   3       8  H
   -2.23886917    1.04527385    0.00000000   2       9  Si
   -2.10613192   -0.53434110    0.00000000   4      10  O
   -0.59908753    1.70363922    0.00000000   1      11  N
    0.08765322    0.88936893    0.00000000   3      12  H
    0.27871642    3.18841940    0.00000000   2      13  Si
    1.84139378    3.02718779    0.00000000   4      14  O
   -0.34200111    5.52884064    0.00000000   3      15  H

siesta: Eigenvalues (eV):
ik =     1
  -22.9100  -22.9100  -22.4850  -22.4850  -21.9330  -21.9330  -21.1164  -21.1164  -15.1804  -15.1804
  -14.2204  -14.2204  -13.6583  -13.6583  -13.1948  -13.1948  -11.9148  -11.9148  -11.3191  -11.3191
  -10.6747  -10.6747   -9.7020   -9.7020   -9.3996   -9.3996   -9.2291   -9.2291   -9.1071   -9.1071
   -8.5812   -8.5812   -8.3676   -8.3676   -8.0573   -8.0573   -7.8663   -7.8663   -7.2834   -7.2834
   -6.7946   -6.7946   -6.5469   -6.5469   -6.2823   -6.2823   -5.8636   -5.8636   -3.6274   -3.6274
   -2.7593   -2.7593   -2.4188   -2.4188   -2.0965   -2.0965   -1.9517   -1.9517   -1.5719   -1.5719
   -1.0418   -1.0418   -0.1905   -0.1905   -0.0835   -0.0835    0.0332    0.0332    0.2945    0.2945
    0.5012    0.5012    0.8676    0.8676    1.1691    1.1691    1.4208    1.4208    1.6681    1.6681
    2.0838    2.0838    2.6459    2.6459    2.7792    2.7792    3.0422    3.0422    3.2533    3.2533
    3.8707    3.8707    4.1472    4.1472    4.4142    4.4142    4.7483    4.7483    4.7954    4.7954
    5.1080    5.1080    5.5664    5.5664    5.6282    5.6282    6.0864    6.0864    6.4224    6.4224
    6.5877    6.5877    6.9105    6.9105    7.0014    7.0014    7.7649    7.7649    7.8211    7.8211
    8.3747    8.3747    8.5591    8.5591    8.6369    8.6369    9.7645    9.7645    9.9012    9.9012
   10.0088   10.0088   10.1564   10.1564   10.5633   10.5633   11.2388   11.2388   11.4973   11.4973
   11.8146   11.8146   11.9164   11.9164   12.3767   12.3767   12.8462   12.8462   13.1584   13.1584
   13.2232   13.2232   13.7999   13.7999   14.0168   14.0168   14.4920   14.4920   14.9810   14.9810
   15.4772   15.4772   16.2194   16.2194   16.6367   16.6367   16.9880   16.9880   17.1553   17.1553
   18.0130   18.0130   18.4729   18.4729   19.8247   19.8247   20.2026   20.2026   20.4978   20.4978
   21.2939   21.2939   21.6173   21.6173   22.7131   22.7131   22.9509   22.9509   23.2397   23.2397
   24.1167   24.1167   25.1139   25.1139   26.0338   26.0338   27.1756   27.1756   27.8369   27.8369
   28.2184   28.2184   28.7082   28.7082   29.8899   29.8899   31.6659   31.6659   31.8538   31.8538
   33.4222   33.4222   33.8912   33.8912   34.3350   34.3350   34.4779   34.4779   35.7353   35.7353
   35.8580   35.8580   36.5128   36.5128   36.9925   36.9925   39.0115   39.0115   39.0371   39.0371
   40.3639   40.3639   41.6726   41.6726   42.0267   42.0267   43.2902   43.2902   44.9018   44.9018
   45.9143   45.9143   47.5718   47.5718   48.0757   48.0757   48.3174   48.3174   49.3090   49.3090
   50.1022   50.1022   50.4509   50.4509   50.9349   50.9349   52.1510   52.1510   53.9183   53.9183
   55.3455   55.3455   55.4605   55.4605   56.5107   56.5107   56.6275   56.6275   58.3045   58.3045
   59.0845   59.0845   62.5295   62.5295   65.6708   65.6708   66.1986   66.1986   67.6730   67.6730
   75.2081   75.2081   89.6972   89.6972   92.9649   92.9649   98.3441   98.3441  100.6339  100.6339
  120.5023  120.5023  135.4011  135.4011
siesta: Fermi energy =      -4.461979 eV

siesta: Program's energy decomposition (eV):
siesta: Ebs     =      -563.376234
siesta: Eions   =      1908.291957
siesta: Ena     =       162.506056
siesta: Ekin    =      1443.368964
siesta: Enl     =     -1207.511526
siesta: Eso     =        -0.002421
siesta: Edftu   =         0.000000
siesta: DEna    =         8.130075
siesta: DUscf   =         6.968457
siesta: DUext   =         0.000000
siesta: Exc     =      -544.319825
siesta: eta*DQ  =         0.000000
siesta: Emadel  =         0.000000
siesta: Emeta   =         0.000000
siesta: Emolmec =         0.000000
siesta: Ekinion =         0.000000
siesta: Eharris =     -2039.152176
siesta: Etot    =     -2039.152176
siesta: FreeEng =     -2039.152176

siesta: Final energy (eV):
siesta:  Band Struct. =    -563.376234
siesta:       Kinetic =    1443.368964
siesta:       Hartree =    3128.127988
siesta:       Edftu   =       0.000000
siesta:       Eso     =      -0.002421
siesta:    Ext. field =       0.000000
siesta:   Exch.-corr. =    -544.319825
siesta:  Ion-electron =   -7556.796470
siesta:       Ion-ion =    1490.469588
siesta:       Ekinion =       0.000000
siesta:         Total =   -2039.152176
siesta:         Fermi =      -4.461979

siesta: Atomic forces (eV/Ang):
siesta:      1   -0.000351    0.000003    0.007321
siesta:      2   -0.001263    0.003550   -0.042504
siesta:      3    0.000159    0.001506    0.011267
siesta:      4    0.004742    0.000494   -0.001510
siesta:      5    0.000814   -0.000970    0.198780
siesta:      6   -0.001077    0.000901   -0.002025
siesta:      7    0.000064   -0.000263    0.000358
siesta:      8   -0.002963    0.003476    0.001854
siesta:      9    0.000157   -0.000006    0.002018
siesta:     10    0.002815   -0.003513   -0.000338
siesta:     11   -0.000991    0.001478    0.000476
siesta:     12    0.002132   -0.001641    0.000835
siesta:     13   -0.002168    0.000649   -0.000568
siesta:     14    0.002187    0.000092   -0.000602
siesta:     15   -0.003576    0.000338    0.006430
siesta: ----------------------------------------
siesta:    Tot    0.000681    0.006094    0.181790

siesta: Stress tensor (static) (eV/Ang**3):
siesta:    -0.001882   -0.001263   -0.000019
siesta:    -0.001263   -0.001225   -0.000017
siesta:    -0.000019   -0.000017   -0.000336

siesta: Cell volume =       2447.125541 Ang**3

siesta: Pressure (static):
siesta:                Solid            Molecule  Units
siesta:           0.00001250          0.00001246  Ry/Bohr**3
siesta:           0.00114768          0.00114380  eV/Ang**3
siesta:           1.83881384          1.83259706  kBar
(Free)E+ p_basis*V_orbitals  =       -2028.705961
(Free)Eharris+ p_basis*V_orbitals  =       -2028.705961
     spin moment: S , {S} =    0.00000   0.00000  -0.00000  -0.00000

siesta: Electric dipole (a.u.)  =   -2.064704    2.581136   -0.016160
siesta: Electric dipole (Debye) =   -5.247957    6.560598   -0.041076

cite: Please see "Thymine.bib" for an exhaustive BiBTeX file.
cite: Please clearly indicate Siesta version in published work: v4.1.5-1-g384057250
cite: This calculation has made use of the following articles
cite: which are encouraged to be cited in a published work.
        Primary SIESTA paper
          DOI: www.doi.org/10.1088/0953-8984/14/11/302
        Spin-orbit coupling (on-site approximation)
          DOI: www.doi.org/10.1088/0953-8984/19/19/489001

WARNING: alloc-realloc-dealloc name mismatch
         Name: atomlist isa
         Node:     0
         Subsequent mismatches will not be reported
>> End of run:   1-JUN-2023   7:26:17
Job completed