>> Start of run:  22-MAY-2023   9:34:11

reinit: Reading from standard input
reinit: Dumped input in INPUT_TMP.54264
************************** Dump of input data file ****************************
SystemLabel      AT
NumberOfAtoms    30
NumberOfSpecies  4
%block ChemicalSpeciesLabel
    1    1  H
    2    7  N
    3   14  Si
    4    8  O
%endblock ChemicalSpeciesLabel
# Single point calculation
MD.TypeOfRun                CG
MD.Steps                    0
SCF.MustConverge            F # In case it does not. There can be 2 very close atoms
AtomicCoordinatesFormat NotScaledCartesianAng
%block AtomicCoordinatesAndAtomicSpecies
2.582377650    -5.776830440   0.000000000       1
1.654759240    -5.269361980   0.000000000       2
0.063128840    -6.101704590   0.000000000       3
0.119223240    -7.596849500   0.000000000       1
-1.376892050   -5.182603740   0.000000000       2
-0.824371900   -3.460866440   0.000000000       3
-1.170571480   -1.270002100   0.000000000       3
-2.706933680   -0.417515780   0.000000000       2
-2.754569660   0.634858620    0.000000000       1
-3.637675640   -0.909967860   0.000000000       1
0.218091790    -0.234193970   0.000000000       2
1.872004100    -0.697162300   0.000000000       3
2.828001130    0.461464770    0.000000000       1
2.648150080    -2.255024470   0.000000000       2
1.391921380    -3.454727220   0.000000000       3
1.907635921    4.260478273    0.000000000       2
0.580264401    5.470682573    0.000000000       3
1.220265671    6.832000813    0.000000000       1
-1.505481539   4.800151223    0.000000000       3
-3.535044139   5.930267413    0.000000000       3
-3.380808369   7.090497623    0.940305280       1
-4.520978859   4.908346793    0.512613700       1
-3.951259099   6.406493263    -1.366678340      1
-1.438986119   2.526174603    0.000000000       3
-2.478034849   1.333115103    0.000000000       4
0.218005461    1.892199413    0.000000000       2
0.199988091    0.829754583    0.000000000       1
1.841608531    2.489269623    0.000000000       3
3.036624701    1.474844423    0.000000000       4
2.907673291    4.605985373    0.000000000       1
%endblock AtomicCoordinatesAndAtomicSpecies
%include ../../../Defaults.fdf
************************** End of input data file *****************************

reinit: -----------------------------------------------------------------------
reinit: System Name:
reinit: -----------------------------------------------------------------------
reinit: System Label: AT
reinit: -----------------------------------------------------------------------

initatom: Reading input for the pseudopotentials and atomic orbitals ----------
Species number:   1 Atomic number:    1 Label: H
Species number:   2 Atomic number:    7 Label: N
Species number:   3 Atomic number:   14 Label: Si
Species number:   4 Atomic number:    8 Label: O

Ground state valence configuration:   1s01
Reading pseudopotential information in formatted form from H.psf

Pseudopotential generated from a relativistic atomic calculation

Valence configuration for pseudopotential generation:
1s( 1.00) rc: 0.01
2p( 0.00) rc: 0.60
3d( 0.00) rc: 1.99
4f( 0.00) rc: 2.49
Ground state valence configuration:   2s02  2p03
Reading pseudopotential information in formatted form from N.psf

[...]

Valence configuration for pseudopotential generation:
3s( 2.00) rc: 1.67
3p( 2.00) rc: 2.04
3d( 0.00) rc: 2.89
4f( 0.00) rc: 2.49
Ground state valence configuration:   2s02  2p04
Reading pseudopotential information in formatted form from O.psf

Pseudopotential generated from a relativistic atomic calculation

Valence configuration for pseudopotential generation:
2s( 2.00) rc: 0.45
2p( 4.00) rc: 0.92
3d( 0.00) rc: 2.24
4f( 0.00) rc: 0.25
For H, standard SIESTA heuristics set lmxkb to 2
 (one more than the basis l, including polarization orbitals).
Use PS.lmax or PS.KBprojectors blocks to override.
For N, standard SIESTA heuristics set lmxkb to 3
 (one more than the basis l, including polarization orbitals).
Use PS.lmax or PS.KBprojectors blocks to override.
For Si, standard SIESTA heuristics set lmxkb to 3
 (one more than the basis l, including polarization orbitals).
Use PS.lmax or PS.KBprojectors blocks to override.
For O, standard SIESTA heuristics set lmxkb to 3
 (one more than the basis l, including polarization orbitals).
Use PS.lmax or PS.KBprojectors blocks to override.

<basis_specs>
H                    Z=   1    Mass=  1.0100        Charge= 0.17977+309
Lmxo=0 Lmxkb= 2    BasisType=split      Semic=F
L=0  Nsemic=0  Cnfigmx=1
          i=1  nzeta=2  polorb=1  (1s)
            splnorm:   0.62000
               vcte:    0.0000
               rinn:    0.0000
               qcoe:    0.0000
               qyuk:    0.0000
               qwid:   0.10000E-01
                rcs:    0.0000      0.0000
            lambdas:    1.0000      1.0000
L=0  Nkbl=1  erefs: 0.17977+309
L=1  Nkbl=1  erefs: 0.17977+309
L=2  Nkbl=1  erefs: 0.17977+309
</basis_specs>

atom: Called for H                     (Z =   1)

read_vps: Pseudopotential generation method:
read_vps: ATM4.2.7  Troullier-Martins
Valence charge for ps generation:    1.00000

xc_check: Exchange-correlation functional:
xc_check: GGA Perdew, Burke & Ernzerhof 1996
V l=0 = -2*Zval/r beyond r=  0.0098
V l=1 = -2*Zval/r beyond r=  0.5817
V l=2 = -2*Zval/r beyond r=  1.9372
All V_l potentials equal beyond r=  1.9372
This should be close to max(r_c) in ps generation
All pots = -2*Zval/r beyond r=  1.9372

VLOCAL1: 99.0% of the norm of Vloc inside     11.567 Ry
VLOCAL1: 99.9% of the norm of Vloc inside     26.362 Ry
atom: Maximum radius for 4*pi*r*r*local-pseudopot. charge    2.25106
atom: Maximum radius for r*vlocal+2*Zval:    1.91306
GHOST: No ghost state for L =  0
GHOST: No ghost state for L =  1
GHOST: No ghost state for L =  2

KBgen: Kleinman-Bylander projectors:
   l= 0   rc=  2.036604   el= -0.477180   Ekb= -6.081590   kbcos= -0.277285
   l= 1   rc=  2.195416   el=  0.001076   Ekb= -0.926943   kbcos= -0.034643
   l= 2   rc=  2.251056   el=  0.002010   Ekb= -0.130941   kbcos= -0.009788

KBgen: Total number of Kleinman-Bylander projectors:    9
atom: -------------------------------------------------------------------------

atom: SANKEY-TYPE ORBITALS:
atom: Selected multiple-zeta basis: split

SPLIT: Orbitals with angular momentum L= 0

SPLIT: Basis orbitals for state 1s

SPLIT: PAO cut-off radius determined from an
SPLIT: energy shift=  0.002000 Ry

   izeta = 1
                 lambda =    1.000000
                     rc =    6.518340
                 energy =   -0.475305
                kinetic =    0.912139
    potential(screened) =   -1.387444
       potential(ionic) =   -1.907295

   izeta = 2
                 rmatch =    2.141150
              splitnorm =    0.620000
                 energy =    0.566467
                kinetic =    3.772856
    potential(screened) =   -3.206389
       potential(ionic) =   -3.759093

POLgen: Perturbative polarization orbital with L=  1

POLgen: Polarization orbital for state 1s

   izeta = 1
                     rc =    6.518340
                 energy =    0.533861
                kinetic =    1.121086
    potential(screened) =   -0.587225
       potential(ionic) =   -1.053027
atom: Total number of Sankey-type orbitals:  5

atm_pop: Valence configuration (for local Pseudopot. screening):
 1s( 1.00)
Vna: chval, zval:    1.00000   1.00000

Vna:  Cut-off radius for the neutral-atom potential:   6.518340

atom: _________________________________________________________________________

<basis_specs>
N                    Z=   7    Mass=  14.010        Charge= 0.17977+309
Lmxo=1 Lmxkb= 3    BasisType=split      Semic=F
L=0  Nsemic=0  Cnfigmx=2
          i=1  nzeta=2  polorb=0  (2s)
            splnorm:   0.28000
               vcte:    0.0000
               rinn:    0.0000
               qcoe:    0.0000
               qyuk:    0.0000
               qwid:   0.10000E-01
                rcs:    0.0000      0.0000
            lambdas:    1.0000      1.0000
L=1  Nsemic=0  Cnfigmx=2
          i=1  nzeta=2  polorb=1  (2p)
            splnorm:   0.28000
               vcte:    0.0000
               rinn:    0.0000
               qcoe:    0.0000
               qyuk:    0.0000
               qwid:   0.10000E-01
                rcs:    0.0000      0.0000
            lambdas:    1.0000      1.0000
L=0  Nkbl=1  erefs: 0.17977+309
L=1  Nkbl=1  erefs: 0.17977+309
L=2  Nkbl=1  erefs: 0.17977+309
L=3  Nkbl=1  erefs: 0.17977+309
</basis_specs>

[...]

KBgen: Kleinman-Bylander projectors:
   l= 0   rc=  3.417763   el= -1.365098   Ekb= -4.433130   kbcos= -0.707855
   l= 1   rc=  3.375302   el= -0.521201   Ekb=-13.264039   kbcos= -0.535594
   l= 2   rc=  3.872880   el=  0.001991   Ekb= -0.641094   kbcos= -0.062456
   l= 3   rc=  3.970931   el=  0.003093   Ekb= -0.474517   kbcos= -0.018236

[...]

SPLIT: Basis orbitals for state 2p

[...]

POLgen: Polarization orbital for state 2p

[...]

atm_pop: Valence configuration (for local Pseudopot. screening):
 2s( 2.00)
 2p( 3.00)
Vna: chval, zval:    5.00000   5.00000

[...]

KBgen: Kleinman-Bylander projectors:
   l= 0   rc=  3.075247   el= -0.794092   Ekb=  5.879390   kbcos=  0.167461
   l= 1   rc=  3.153101   el= -0.300068   Ekb=  2.642817   kbcos=  0.058301
   l= 2   rc=  3.273594   el=  0.001958   Ekb= -1.185135   kbcos= -0.104411
   l= 3   rc=  3.232927   el=  0.003046   Ekb= -0.497174   kbcos= -0.015889

[...]

<basis_specs>
O                    Z=   8    Mass=  16.000        Charge= 0.17977+309
Lmxo=1 Lmxkb= 3    BasisType=split      Semic=F
L=0  Nsemic=0  Cnfigmx=2
          i=1  nzeta=2  polorb=0  (2s)
            splnorm:   0.28000
               vcte:    0.0000
               rinn:    0.0000
               qcoe:    0.0000
               qyuk:    0.0000
               qwid:   0.10000E-01
                rcs:    0.0000      0.0000
            lambdas:    1.0000      1.0000
L=1  Nsemic=0  Cnfigmx=2
          i=1  nzeta=2  polorb=1  (2p)
            splnorm:   0.28000
               vcte:    0.0000
               rinn:    0.0000
               qcoe:    0.0000
               qyuk:    0.0000
               qwid:   0.10000E-01
                rcs:    0.0000      0.0000
            lambdas:    1.0000      1.0000
L=0  Nkbl=1  erefs: 0.17977+309
L=1  Nkbl=1  erefs: 0.17977+309
L=2  Nkbl=1  erefs: 0.17977+309
L=3  Nkbl=1  erefs: 0.17977+309
</basis_specs>

atom: Called for O                     (Z =   8)

read_vps: Pseudopotential generation method:
read_vps: ATM4.2.7  Troullier-Martins
Valence charge for ps generation:    6.00000

xc_check: Exchange-correlation functional:
xc_check: GGA Perdew, Burke & Ernzerhof 1996
V l=0 = -2*Zval/r beyond r=  1.1000
V l=1 = -2*Zval/r beyond r=  1.1000
V l=2 = -2*Zval/r beyond r=  2.2154
V l=3 = -2*Zval/r beyond r=  1.1000
All V_l potentials equal beyond r=  2.2154
This should be close to max(r_c) in ps generation
All pots = -2*Zval/r beyond r=  2.2154

VLOCAL1: 99.0% of the norm of Vloc inside      8.845 Ry
VLOCAL1: 99.9% of the norm of Vloc inside     20.157 Ry
atom: Maximum radius for 4*pi*r*r*local-pseudopot. charge    2.67231
atom: Maximum radius for r*vlocal+2*Zval:    2.32897
GHOST: No ghost state for L =  0
[...]
   scf:   31    -3985.143302    -3985.143302    -3985.143660  0.000007 -3.826835  0.000011
     spin moment: S , {S} =    0.00000   0.00000   0.00000   0.00000
   scf:   32    -3985.143302    -3985.143302    -3985.143660  0.000002 -3.826835  0.000007
     spin moment: S , {S} =    0.00000  -0.00000   0.00000   0.00000
   scf:   33    -3985.143302    -3985.143302    -3985.143660  0.000001 -3.826835  0.000005
     spin moment: S , {S} =    0.00000  -0.00000   0.00000   0.00000
   scf:   34    -3985.143302    -3985.143302    -3985.143660  0.000001 -3.826835  0.000003
     spin moment: S , {S} =    0.00000  -0.00000   0.00000   0.00000
   scf:   35    -3985.143302    -3985.143302    -3985.143660  0.000000 -3.826835  0.000002
     spin moment: S , {S} =    0.00000  -0.00000   0.00000   0.00000
   scf:   36    -3985.143302    -3985.143302    -3985.143660  0.000000 -3.826835  0.000001
     spin moment: S , {S} =    0.00000  -0.00000   0.00000   0.00000

SCF Convergence by DM+H criterion
max |DM_out - DM_in|         :     0.0000001801
max |H_out - H_in|      (eV) :     0.0000007553
SCF cycle converged after 36 iterations

Using DM_out to compute the final energy and forces
No. of atoms with KB's overlaping orbs in proc 0. Max # of overlaps:      24     224

siesta: E_KS(eV) =            -3985.1433

siesta: E_KS - E_eggbox =     -3985.1433
     spin moment: S , {S} =    0.00000  -0.00000   0.00000   0.00000

siesta: Atomic forces (eV/Ang):
     1   -0.010626   -0.030295    0.000026
     2   -0.131041   -0.248727   -0.000295
     3    0.142013    0.081932   -0.000212
     4   -0.051140   -0.011951    0.000136
     5   -0.065613   -0.020082    0.000250
     6    0.205692   -0.030975    0.000508
     7   -2.524385   -0.616958    0.000905
     8   -0.466736  -19.606652   -0.005878
     9  -12.502304  -24.403363    0.005413
    10   -0.023009   -0.960418   -0.000056
    11   -0.650089  -10.177162   -0.000925
    12   -0.133433   -4.556514   -0.001406
    13    0.334513   -2.724259   -0.000096
    14   -0.429110   -0.991006    0.001113
    15    0.364121   -0.089248   -0.000386
    16    0.744040   -0.355624    0.009378
    17   -0.195711    0.181395   -0.030784
    18    0.027151    0.151722    0.003210
    19   -0.176048   -0.226438   -0.053128
    20    0.143704    0.026121    0.011804
    21   -0.154116    0.176612    0.085241
    22   -0.030937    0.069273    0.030211
    23   -0.024425    0.173404   -0.027004
    24    2.234680    2.326865   -0.020962
    25   15.536993   40.585541    0.004693
    26    0.388956   10.610065    0.009634
    27   -0.687166   -0.488820    0.001863
    28   -3.313347    2.480753   -0.002294
    29    5.803287    9.987721   -0.000864
    30    0.065189    0.310488    0.005411
   Tot    4.421104    1.623398    0.025504
   Max   40.585541
   Res    6.184208    sqrt( Sum f_i^2 / 3N )
   Max   40.585541    constrained

Stress tensor Voigt[x,y,z,yz,xz,xy] (kbar):       -5.37      -43.02       -0.24       -0.05        0.06       -7.01
(Free)E + p*V (eV/cell)    -3946.3123
Target enthalpy (eV/cell)    -3985.1437

mulliken: Atomic and Orbital Populations:

Species: H

Atom      Orb        Charge      Spin       Svec
    1  3 2Ppy       0.02868   0.00000      0.000   0.000  -0.000
    1  4 2Ppz       0.04014   0.00000      0.000   0.000   0.000
    1  5 2Ppx       0.02522   0.00000      0.000  -0.000   0.000
    1     Total     0.79565   0.00000      0.000   0.000   0.000

    4  3 2Ppy       0.03906   0.00000     -0.000   0.000   0.000
    4  4 2Ppz       0.01951   0.00000      0.000  -0.000   0.000
    4  5 2Ppx       0.01368   0.00000      0.000  -0.000   0.000
    4     Total     1.19183   0.00000      0.000   0.000   0.000

[...]

   30  3 2Ppy       0.02994   0.00000      0.000   0.000   0.000
   30  4 2Ppz       0.03565   0.00000      0.000  -0.000   0.000
   30  5 2Ppx       0.02568   0.00000      0.000   0.000   0.000
   30     Total     0.78156   0.00000      0.000   0.000   0.000

Total              11.06162   0.00000     -0.000   0.000  -0.000

[...]

Atom      Orb        Charge      Spin       Svec
    2  9 3Pdxy      0.00717   0.00000     -0.000  -0.000   0.000
    2 10 3Pdyz      0.00562   0.00000     -0.000   0.000  -0.000
    2 11 3Pdz2      0.00158   0.00000     -0.000   0.000   0.000
    2 12 3Pdxz      0.00303   0.00000      0.000   0.000   0.000
    2 13 3Pdx2-y2   0.00306   0.00000     -0.000   0.000   0.000
    2     Total     5.52339   0.00000     -0.000  -0.000  -0.000

    5  9 3Pdxy      0.00868   0.00000      0.000  -0.000  -0.000
    5 10 3Pdyz      0.00673   0.00000      0.000   0.000  -0.000
    5 11 3Pdz2      0.00193   0.00000      0.000   0.000  -0.000
    5 12 3Pdxz      0.01132   0.00000      0.000  -0.000   0.000
    5 13 3Pdx2-y2   0.00928   0.00000      0.000  -0.000  -0.000
    5     Total     5.37699   0.00000     -0.000  -0.000  -0.000

[...]

   28  9 3Pdxy      0.17302   0.00000     -0.000  -0.000   0.000
   28 10 3Pdyz      0.13692   0.00000     -0.000   0.000   0.000
   28 11 3Pdz2      0.00927   0.00000     -0.000  -0.000   0.000
   28 12 3Pdxz      0.14219   0.00000     -0.000   0.000   0.000
   28 13 3Pdx2-y2   0.28546   0.00000     -0.000   0.000   0.000
   28     Total     3.24334   0.00000     -0.000   0.000   0.000

[...]

Species: O

Atom      Orb        Charge      Spin       Svec
   25  9 3Pdxy      0.00744   0.00000     -0.000   0.000  -0.000
   25 10 3Pdyz      0.00855   0.00000     -0.000  -0.000   0.000
   25 11 3Pdz2      0.00361   0.00000     -0.000   0.000  -0.000
   25 12 3Pdxz      0.00260   0.00000     -0.000  -0.000   0.000
   25 13 3Pdx2-y2   0.01521   0.00000      0.000   0.000  -0.000
   25     Total     6.36397   0.00000      0.000   0.000   0.000

   29  7 2pz       -0.00631   0.00000     -0.000  -0.000   0.000
   29  9 3Pdxy      0.00936   0.00000     -0.000  -0.000   0.000
   29 10 3Pdyz      0.00177   0.00000     -0.000   0.000   0.000
   29 11 3Pdz2      0.00333   0.00000     -0.000   0.000  -0.000
   29 12 3Pdxz      0.00700   0.00000      0.000  -0.000   0.000
   29 13 3Pdx2-y2   0.01428   0.00000     -0.000   0.000   0.000
   29     Total     6.41198   0.00000      0.000   0.000  -0.000

Total              98.00000   0.00000     -0.000   0.000   0.000

siesta: Eigenvalues (eV):
ik =     1
  -27.6688  -27.6688  -25.8963  -25.8963  -22.3030  -22.3030  -21.9499  -21.9499  -20.8069  -20.8069
  -19.9782  -19.9782  -19.2876  -19.2876  -19.1180  -19.1180  -18.6393  -18.6393  -16.1371  -16.1371
  -15.1766  -15.1766  -14.8387  -14.8387  -14.1595  -14.1595  -13.6079  -13.6079  -13.3694  -13.3694
  -12.9640  -12.9640  -12.7294  -12.7294  -12.4614  -12.4614  -12.0438  -12.0438  -11.6481  -11.6481
  -11.0383  -11.0383  -10.6813  -10.6813  -10.5684  -10.5684  -10.1563  -10.1563   -9.8450   -9.8450
   -9.6754   -9.6754   -9.5399   -9.5399   -9.5194   -9.5194   -9.4214   -9.4214   -9.0345   -9.0345
   -8.9465   -8.9465   -8.6159   -8.6159   -8.5527   -8.5527   -8.5418   -8.5418   -8.2709   -8.2709
   -8.0010   -8.0010   -7.7894   -7.7894   -7.7056   -7.7056   -7.1643   -7.1643   -7.0889   -7.0889
   -6.4459   -6.4459   -6.0580   -6.0580   -5.9313   -5.9313   -5.8753   -5.8753   -5.5738   -5.5738
   -5.3425   -5.3425   -4.7977   -4.7977   -4.7415   -4.7415   -4.0297   -4.0297   -3.6240   -3.6240
   -2.7351   -2.7351   -2.6086   -2.6086   -2.5272   -2.5272   -2.0621   -2.0621   -2.0548   -2.0548
   -1.8883   -1.8883   -1.6253   -1.6253   -1.5332   -1.5332   -1.3829   -1.3829   -1.2424   -1.2424
   -0.9572   -0.9571   -0.4402   -0.4402   -0.3153   -0.3152   -0.1593   -0.1593   -0.1144   -0.1144
   -0.0184   -0.0184    0.2345    0.2345    0.3916    0.3916    0.4188    0.4188    0.6699    0.6699
    0.9406    0.9406    0.9464    0.9464    1.2287    1.2287    1.3207    1.3207    1.4661    1.4661
    1.8323    1.8323    1.8811    1.8811    2.0751    2.0751    2.5065    2.5065    2.5761    2.5761
    2.5942    2.5942    2.8052    2.8052    2.8411    2.8411    3.0487    3.0487    3.1460    3.1460
    3.2563    3.2563    3.3228    3.3228    3.6745    3.6745    3.9149    3.9149    3.9995    3.9995
    4.0680    4.0680    4.1599    4.1599    4.6027    4.6027    4.7092    4.7092    4.8822    4.8822
    4.9535    4.9535    5.1585    5.1585    5.2311    5.2311    5.2486    5.2486    5.4539    5.4539
    5.7248    5.7248    5.8405    5.8405    5.9515    5.9515    6.2979    6.2979    6.3674    6.3674
    6.4084    6.4084    6.5234    6.5234    6.8403    6.8403    6.9711    6.9711    7.0429    7.0429
    7.1810    7.1810    7.2902    7.2902    7.5243    7.5243    7.6354    7.6354    7.6870    7.6870
    7.8297    7.8297    8.0809    8.0809    8.2549    8.2549    8.4366    8.4366    8.5080    8.5080
    8.6947    8.6947    9.1429    9.1429    9.1807    9.1807    9.4334    9.4334    9.4823    9.4823
    9.6238    9.6238    9.7787    9.7787    9.8675    9.8675    9.9961    9.9961   10.0239   10.0239
   10.3893   10.3893   10.5535   10.5535   10.8720   10.8720   10.8851   10.8851   10.9768   10.9768
   11.2359   11.2359   11.5174   11.5174   11.6388   11.6388   11.6530   11.6530   11.8521   11.8521
   11.8797   11.8797   12.1750   12.1750   12.2039   12.2039   12.2924   12.2924   12.8442   12.8442
   13.0449   13.0449   13.3307   13.3307   13.4121   13.4121   13.4994   13.4994   13.8896   13.8896
   14.1949   14.1949   14.4073   14.4073   14.9037   14.9037   15.0043   15.0043   15.0996   15.0996
   15.4819   15.4819   15.7169   15.7169   15.9568   15.9568   16.3728   16.3728   16.7475   16.7475
   16.8584   16.8584   17.1283   17.1283   17.4956   17.4956   17.6941   17.6941   17.7577   17.7577
   18.1605   18.1605   18.1852   18.1852   18.4742   18.4742   18.5097   18.5097   18.9050   18.9050
   18.9182   18.9182   19.8940   19.8940   19.9998   19.9998   20.5792   20.5792   20.7933   20.7933
   21.1229   21.1229   21.3662   21.3662   21.8153   21.8153   21.8786   21.8786   22.1737   22.1737
   22.5500   22.5500   23.0174   23.0174   23.1503   23.1503   23.4313   23.4313   24.0597   24.0597
   24.3015   24.3015   24.8397   24.8397   25.0424   25.0424   25.4167   25.4167   25.7296   25.7296
   26.1041   26.1041   26.4252   26.4252   27.3234   27.3234   27.9270   27.9270   28.1156   28.1156
   28.4634   28.4634   28.7440   28.7440   29.5530   29.5530   29.6002   29.6002   30.7740   30.7740
   31.0328   31.0328   31.0812   31.0812   31.5736   31.5736   32.0220   32.0220   32.0560   32.0560
   32.3936   32.3936   33.1217   33.1217   33.2014   33.2014   33.7605   33.7605   34.7072   34.7072
   35.2942   35.2942   35.4359   35.4359   36.5606   36.5606   36.5724   36.5724   37.2000   37.2000
   37.4556   37.4556   38.0021   38.0021   38.3918   38.3918   39.5707   39.5707   39.5826   39.5826
   39.8075   39.8075   40.4001   40.4001   41.0768   41.0768   41.1179   41.1179   41.2207   41.2207
   41.6608   41.6608   42.5674   42.5674   42.5905   42.5905   43.1983   43.1983   43.8620   43.8620
   43.9485   43.9485   44.4488   44.4488   44.6642   44.6642   45.3767   45.3767   45.4595   45.4595
   45.7294   45.7294   46.1737   46.1737   46.3362   46.3362   46.5767   46.5767   47.1215   47.1215
   47.9227   47.9227   48.2027   48.2027   48.2953   48.2953   48.9289   48.9289   49.2561   49.2561
   49.4530   49.4530   49.5865   49.5865   49.8154   49.8154   50.2783   50.2783   51.1850   51.1850
   51.4827   51.4827   52.0415   52.0415   53.7907   53.7907   54.0516   54.0516   54.4062   54.4062
   54.8182   54.8182   55.6076   55.6076   55.7724   55.7724   56.9567   56.9567   57.3833   57.3833
   57.4821   57.4821   59.1629   59.1629   60.0000   60.0000   60.1491   60.1491   61.4542   61.4542
   61.6191   61.6191   62.2069   62.2069   62.3569   62.3569   64.9025   64.9025   65.9180   65.9180
   67.6477   67.6477   67.7123   67.7123   68.3591   68.3591   68.5534   68.5534   69.1120   69.1120
   69.3196   69.3196   70.2378   70.2378   70.9700   70.9700   73.1953   73.1953   75.2347   75.2347
   76.5330   76.5330   82.0138   82.0138   86.2068   86.2068   89.5714   89.5714   92.7484   92.7484
   93.6852   93.6852   93.8599   93.8599   96.6211   96.6211   98.8250   98.8250  100.2196  100.2196
  104.0734  104.0734  108.1426  108.1426  110.0092  110.0092  114.6568  114.6568  122.9251  122.9251
  123.9923  123.9923  127.3845  127.3845  130.4397  130.4397  140.6268  140.6268  151.3165  151.3165
  155.6194  155.6194  203.4171  203.4171
siesta: Fermi energy =      -3.826835 eV

siesta: Program's energy decomposition (eV):
siesta: Ebs     =     -1147.473227
siesta: Eions   =      3553.971015
siesta: Ena     =       401.474449
siesta: Ekin    =      2817.320802
siesta: Enl     =     -2593.694147
siesta: Eso     =        -0.004997
siesta: Edftu   =         0.000000
siesta: DEna    =        38.072161
siesta: DUscf   =        14.274101
siesta: DUext   =         0.000000
siesta: Exc     =     -1108.614657
siesta: eta*DQ  =         0.000000
siesta: Emadel  =         0.000000
siesta: Emeta   =         0.000000
siesta: Emolmec =         0.000000
siesta: Ekinion =         0.000000
siesta: Eharris =     -3985.143302
siesta: Etot    =     -3985.143302
siesta: FreeEng =     -3985.143660

siesta: Final energy (eV):
siesta:  Band Struct. =   -1147.473227
siesta:       Kinetic =    2817.320802
siesta:       Hartree =    8812.705748
siesta:       Edftu   =       0.000000
siesta:       Eso     =      -0.004997
siesta:    Ext. field =       0.000000
siesta:   Exch.-corr. =   -1108.614657
siesta:  Ion-electron =  -20150.634557
siesta:       Ion-ion =    5644.084359
siesta:       Ekinion =       0.000000
siesta:         Total =   -3985.143302
siesta:         Fermi =      -3.826835

siesta: Atomic forces (eV/Ang):
siesta:      1   -0.010626   -0.030295    0.000026
siesta:      2   -0.131041   -0.248727   -0.000295
siesta:      3    0.142013    0.081932   -0.000212
siesta:      4   -0.051140   -0.011951    0.000136
siesta:      5   -0.065613   -0.020082    0.000250
siesta:      6    0.205692   -0.030975    0.000508
siesta:      7   -2.524385   -0.616958    0.000905
siesta:      8   -0.466736  -19.606652   -0.005878
siesta:      9  -12.502304  -24.403363    0.005413
siesta:     10   -0.023009   -0.960418   -0.000056
siesta:     11   -0.650089  -10.177162   -0.000925
siesta:     12   -0.133433   -4.556514   -0.001406
siesta:     13    0.334513   -2.724259   -0.000096
siesta:     14   -0.429110   -0.991006    0.001113
siesta:     15    0.364121   -0.089248   -0.000386
siesta:     16    0.744040   -0.355624    0.009378
siesta:     17   -0.195711    0.181395   -0.030784
siesta:     18    0.027151    0.151722    0.003210
siesta:     19   -0.176048   -0.226438   -0.053128
siesta:     20    0.143704    0.026121    0.011804
siesta:     21   -0.154116    0.176612    0.085241
siesta:     22   -0.030937    0.069273    0.030211
siesta:     23   -0.024425    0.173404   -0.027004
siesta:     24    2.234680    2.326865   -0.020962
siesta:     25   15.536993   40.585541    0.004693
siesta:     26    0.388956   10.610065    0.009634
siesta:     27   -0.687166   -0.488820    0.001863
siesta:     28   -3.313347    2.480753   -0.002294
siesta:     29    5.803287    9.987721   -0.000864
siesta:     30    0.065189    0.310488    0.005411
siesta: ----------------------------------------
siesta:    Tot    4.421104    1.623398    0.025504

siesta: Stress tensor (static) (eV/Ang**3):
siesta:    -0.003354   -0.004377    0.000038
siesta:    -0.004377   -0.026848   -0.000031
siesta:     0.000038   -0.000031   -0.000150

siesta: Cell volume =       3838.154864 Ang**3

siesta: Pressure (static):
siesta:                Solid            Molecule  Units
siesta:           0.00011019         -0.00000063  Ry/Bohr**3
siesta:           0.01011719         -0.00005809  eV/Ang**3
siesta:          16.20970565         -0.09306460  kBar
(Free)E+ p_basis*V_orbitals  =       -3964.015575
(Free)Eharris+ p_basis*V_orbitals  =       -3964.015575
     spin moment: S , {S} =    0.00000  -0.00000   0.00000   0.00000

siesta: Electric dipole (a.u.)  =    0.433994    2.511825   -0.013956
siesta: Electric dipole (Debye) =    1.103104    6.384427   -0.035473

cite: Please see "AT.bib" for an exhaustive BiBTeX file.
cite: Please clearly indicate Siesta version in published work: v4.1.5-1-g384057250
cite: This calculation has made use of the following articles
cite: which are encouraged to be cited in a published work.
        Primary SIESTA paper
          DOI: www.doi.org/10.1088/0953-8984/14/11/302
        Spin-orbit coupling (on-site approximation)
          DOI: www.doi.org/10.1088/0953-8984/19/19/489001

WARNING: alloc-realloc-dealloc name mismatch
         Name: atomlist isa
         Node:     0
         Subsequent mismatches will not be reported
>> End of run:  22-MAY-2023   9:36:24
Job completed