>> Start of run:  14-OCT-2023   9:07:19

reinit: Reading from standard input
reinit: Dumped input in INPUT_TMP.75203
************************** Dump of input data file ****************************
# mpirun -np 4 siesta-4.1.5 < Adenine.fdf > Adenine.out
SystemLabel      Adenine
NumberOfAtoms    15
NumberOfSpecies  3
%block ChemicalSpeciesLabel
    1    1  H
    2    7  N
    3   14  Si
%endblock ChemicalSpeciesLabel
# This overrides Defaults.fdf configuration
MD.TypeOfRun                Verlet # CG, Verlet
MD.Steps                    300
MD.Quench                   True
AtomicCoordinatesFormat NotScaledCartesianAng
%block AtomicCoordinatesAndAtomicSpecies
    1.92217700   -4.66970900    0.00000000   1       1  H
    1.01831500   -4.12648300    0.00000000   2       2  N
   -0.35065900   -4.65659600    0.00000000   3       3  Si
   -0.52605900   -5.73746400    0.00000000   1       4  H
   -1.36632100   -3.65830600    0.00000000   2       5  N
   -0.52203300   -2.41218400    0.00000000   3       6  Si
   -0.99261300   -1.07159200    0.00000000   3       7  Si
   -2.38493200   -0.69381800    0.00000000   2       8  N
   -2.68175500    0.36118600    0.00000000   1       9  H
   -3.06516100   -1.49833300    0.00000000   1      10  H
    0.00003300   -0.00002500    0.00000000   2      11  N
    1.38620000   -0.39129500    0.00000000   3      12  Si
    2.07267900    0.47714600    0.00000000   1      13  H
    1.97728500   -1.70888500    0.00000000   2      14  N
    0.86779900   -2.65900800    0.00000000   3      15  Si
%endblock AtomicCoordinatesAndAtomicSpecies
# Unit Cell
LatticeConstant 1.0 Ang
%block LatticeVectors
    14.779133    0.000000    0.000000
    0.000000   16.638097    0.000000
    0.000000    0.000000    9.854683
%endblock LatticeVectors
%include ../../../../Defaults.fdf
************************** End of input data file *****************************

reinit: -----------------------------------------------------------------------
reinit: System Name:
reinit: -----------------------------------------------------------------------
reinit: System Label: Adenine
reinit: -----------------------------------------------------------------------

initatom: Reading input for the pseudopotentials and atomic orbitals ----------
Species number:   1 Atomic number:    1 Label: H
Species number:   2 Atomic number:    7 Label: N
Species number:   3 Atomic number:   14 Label: Si

Ground state valence configuration:   1s01
Reading pseudopotential information in formatted form from H.psf

Pseudopotential generated from a relativistic atomic calculation

Valence configuration for pseudopotential generation:
1s( 1.00) rc: 0.01
2p( 0.00) rc: 0.60
3d( 0.00) rc: 1.99
4f( 0.00) rc: 2.49
Ground state valence configuration:   2s02  2p03
Reading pseudopotential information in formatted form from N.psf

[...]

Valence configuration for pseudopotential generation:
2s( 2.00) rc: 0.94
2p( 3.00) rc: 0.59
3d( 0.00) rc: 3.46
4f( 0.00) rc: 2.47
Ground state valence configuration:   3s02  3p02
Reading pseudopotential information in formatted form from Si.psf

Pseudopotential generated from a relativistic atomic calculation

Valence configuration for pseudopotential generation:
3s( 2.00) rc: 1.67
3p( 2.00) rc: 2.04
3d( 0.00) rc: 2.89
4f( 0.00) rc: 2.49
For H, standard SIESTA heuristics set lmxkb to 2
 (one more than the basis l, including polarization orbitals).
Use PS.lmax or PS.KBprojectors blocks to override.
For N, standard SIESTA heuristics set lmxkb to 3
 (one more than the basis l, including polarization orbitals).
Use PS.lmax or PS.KBprojectors blocks to override.
For Si, standard SIESTA heuristics set lmxkb to 3
 (one more than the basis l, including polarization orbitals).
Use PS.lmax or PS.KBprojectors blocks to override.

<basis_specs>
H                    Z=   1    Mass=  1.0100        Charge= 0.17977+309
Lmxo=0 Lmxkb= 2    BasisType=split      Semic=F
L=0  Nsemic=0  Cnfigmx=1
          i=1  nzeta=2  polorb=1  (1s)
            splnorm:   0.62000
               vcte:    0.0000
               rinn:    0.0000
               qcoe:    0.0000
               qyuk:    0.0000
               qwid:   0.10000E-01
                rcs:    0.0000      0.0000
            lambdas:    1.0000      1.0000
L=0  Nkbl=1  erefs: 0.17977+309
L=1  Nkbl=1  erefs: 0.17977+309
L=2  Nkbl=1  erefs: 0.17977+309
</basis_specs>

atom: Called for H                     (Z =   1)

read_vps: Pseudopotential generation method:
read_vps: ATM4.2.7  Troullier-Martins
Valence charge for ps generation:    1.00000

xc_check: Exchange-correlation functional:
xc_check: GGA Perdew, Burke & Ernzerhof 1996
V l=0 = -2*Zval/r beyond r=  0.0098
V l=1 = -2*Zval/r beyond r=  0.5817
V l=2 = -2*Zval/r beyond r=  1.9372
All V_l potentials equal beyond r=  1.9372
This should be close to max(r_c) in ps generation
All pots = -2*Zval/r beyond r=  1.9372

VLOCAL1: 99.0% of the norm of Vloc inside     11.567 Ry
VLOCAL1: 99.9% of the norm of Vloc inside     26.362 Ry
atom: Maximum radius for 4*pi*r*r*local-pseudopot. charge    2.25106
atom: Maximum radius for r*vlocal+2*Zval:    1.91306
GHOST: No ghost state for L =  0
GHOST: No ghost state for L =  1
GHOST: No ghost state for L =  2

KBgen: Kleinman-Bylander projectors:
   l= 0   rc=  2.036604   el= -0.477180   Ekb= -6.081590   kbcos= -0.277285
   l= 1   rc=  2.195416   el=  0.001076   Ekb= -0.926943   kbcos= -0.034643
   l= 2   rc=  2.251056   el=  0.002010   Ekb= -0.130941   kbcos= -0.009788

KBgen: Total number of Kleinman-Bylander projectors:    9
atom: -------------------------------------------------------------------------

atom: SANKEY-TYPE ORBITALS:
atom: Selected multiple-zeta basis: split

SPLIT: Orbitals with angular momentum L= 0

SPLIT: Basis orbitals for state 1s

SPLIT: PAO cut-off radius determined from an
SPLIT: energy shift=  0.002000 Ry

   izeta = 1
                 lambda =    1.000000
                     rc =    6.518340
                 energy =   -0.475305
                kinetic =    0.912139
    potential(screened) =   -1.387444
       potential(ionic) =   -1.907295

   izeta = 2
                 rmatch =    2.141150
              splitnorm =    0.620000
                 energy =    0.566467
                kinetic =    3.772856
    potential(screened) =   -3.206389
       potential(ionic) =   -3.759093

POLgen: Perturbative polarization orbital with L=  1

POLgen: Polarization orbital for state 1s

   izeta = 1
                     rc =    6.518340
                 energy =    0.533861
                kinetic =    1.121086
    potential(screened) =   -0.587225
       potential(ionic) =   -1.053027
atom: Total number of Sankey-type orbitals:  5

atm_pop: Valence configuration (for local Pseudopot. screening):
 1s( 1.00)
Vna: chval, zval:    1.00000   1.00000

Vna:  Cut-off radius for the neutral-atom potential:   6.518340

atom: _________________________________________________________________________

<basis_specs>
N                    Z=   7    Mass=  14.010        Charge= 0.17977+309
Lmxo=1 Lmxkb= 3    BasisType=split      Semic=F
L=0  Nsemic=0  Cnfigmx=2
          i=1  nzeta=2  polorb=0  (2s)
            splnorm:   0.28000
               vcte:    0.0000
               rinn:    0.0000
               qcoe:    0.0000
               qyuk:    0.0000
               qwid:   0.10000E-01
                rcs:    0.0000      0.0000
            lambdas:    1.0000      1.0000
L=1  Nsemic=0  Cnfigmx=2
          i=1  nzeta=2  polorb=1  (2p)
            splnorm:   0.28000
               vcte:    0.0000
               rinn:    0.0000
               qcoe:    0.0000
               qyuk:    0.0000
               qwid:   0.10000E-01
                rcs:    0.0000      0.0000
            lambdas:    1.0000      1.0000
L=0  Nkbl=1  erefs: 0.17977+309
L=1  Nkbl=1  erefs: 0.17977+309
L=2  Nkbl=1  erefs: 0.17977+309
L=3  Nkbl=1  erefs: 0.17977+309
</basis_specs>

[...]

KBgen: Kleinman-Bylander projectors:
   l= 0   rc=  3.417763   el= -1.365098   Ekb= -4.433130   kbcos= -0.707855
   l= 1   rc=  3.375302   el= -0.521201   Ekb=-13.264039   kbcos= -0.535594
   l= 2   rc=  3.872880   el=  0.001991   Ekb= -0.641094   kbcos= -0.062456
   l= 3   rc=  3.970931   el=  0.003093   Ekb= -0.474517   kbcos= -0.018236

[...]

SPLIT: Basis orbitals for state 2p

[...]

POLgen: Polarization orbital for state 2p

[...]

atm_pop: Valence configuration (for local Pseudopot. screening):
 2s( 2.00)
 2p( 3.00)
Vna: chval, zval:    5.00000   5.00000

[...]

<basis_specs>
Si                   Z=  14    Mass=  28.090        Charge= 0.17977+309
Lmxo=1 Lmxkb= 3    BasisType=split      Semic=F
L=0  Nsemic=0  Cnfigmx=3
          i=1  nzeta=2  polorb=0  (3s)
            splnorm:   0.28000
               vcte:    0.0000
               rinn:    0.0000
               qcoe:    0.0000
               qyuk:    0.0000
               qwid:   0.10000E-01
                rcs:    0.0000      0.0000
            lambdas:    1.0000      1.0000
L=1  Nsemic=0  Cnfigmx=3
          i=1  nzeta=2  polorb=1  (3p)
            splnorm:   0.28000
               vcte:    0.0000
               rinn:    0.0000
               qcoe:    0.0000
               qyuk:    0.0000
               qwid:   0.10000E-01
                rcs:    0.0000      0.0000
            lambdas:    1.0000      1.0000
L=0  Nkbl=1  erefs: 0.17977+309
L=1  Nkbl=1  erefs: 0.17977+309
L=2  Nkbl=1  erefs: 0.17977+309
L=3  Nkbl=1  erefs: 0.17977+309
</basis_specs>

atom: Called for Si                    (Z =  14)

read_vps: Pseudopotential generation method:
read_vps: ATM4.2.7  Troullier-Martins
Valence charge for ps generation:    4.00000

xc_check: Exchange-correlation functional:
xc_check: GGA Perdew, Burke & Ernzerhof 1996
V l=0 = -2*Zval/r beyond r=  2.7826
V l=1 = -2*Zval/r beyond r=  2.7826
V l=2 = -2*Zval/r beyond r=  2.9253
V l=3 = -2*Zval/r beyond r=  2.7826
All V_l potentials equal beyond r=  2.8530
This should be close to max(r_c) in ps generation
All pots = -2*Zval/r beyond r=  2.9253

VLOCAL1: 99.0% of the norm of Vloc inside      5.333 Ry
VLOCAL1: 99.9% of the norm of Vloc inside     12.154 Ry
atom: Maximum radius for 4*pi*r*r*local-pseudopot. charge    3.39869
atom: Maximum radius for r*vlocal+2*Zval:    2.96205
GHOST: No ghost state for L =  0
GHOST: No ghost state for L =  1
GHOST: No ghost state for L =  2
GHOST: No ghost state for L =  3

KBgen: Kleinman-Bylander projectors:
   l= 0   rc=  3.075247   el= -0.794092   Ekb=  5.879390   kbcos=  0.167461
   l= 1   rc=  3.153101   el= -0.300068   Ekb=  2.642817   kbcos=  0.058301
   l= 2   rc=  3.273594   el=  0.001958   Ekb= -1.185135   kbcos= -0.104411
   l= 3   rc=  3.232927   el=  0.003046   Ekb= -0.497174   kbcos= -0.015889

KBgen: Total number of Kleinman-Bylander projectors:   16
atom: -------------------------------------------------------------------------

atom: SANKEY-TYPE ORBITALS:
atom: Selected multiple-zeta basis: split

[...]

SPLIT: Basis orbitals for state 3s

[...]

SPLIT: Orbitals with angular momentum L= 1

SPLIT: Basis orbitals for state 3p

SPLIT: PAO cut-off radius determined from an
SPLIT: energy shift=  0.002000 Ry

   izeta = 1
                 lambda =    1.000000
                     rc =    8.464845
[...]
     spin moment: S , {S} =    0.00000  -0.00000   0.00000  -0.00000
   scf:   12    -1959.544782    -1959.544782    -1959.544782  0.000000 -3.723301  0.000001
     spin moment: S , {S} =    0.00000  -0.00000   0.00000  -0.00000

[...]

        iscf     Eharris(eV)        E_KS(eV)     FreeEng(eV)     dDmax    Ef(eV) dHmax(eV)
   scf:    1    -1959.545657    -1959.545702    -1959.545702  0.000141 -3.718417  0.003863
     spin moment: S , {S} =    0.00000  -0.00000   0.00000   0.00000
   scf:    2    -1959.545698    -1959.545701    -1959.545701  0.000072 -3.718940  0.004294
     spin moment: S , {S} =    0.00000  -0.00000   0.00000   0.00000
   scf:    3    -1959.545702    -1959.545702    -1959.545702  0.000057 -3.718621  0.000923
     spin moment: S , {S} =    0.00000  -0.00000   0.00000   0.00000
   scf:    4    -1959.545702    -1959.545702    -1959.545702  0.000005 -3.718653  0.000213
     spin moment: S , {S} =    0.00000  -0.00000   0.00000   0.00000
   scf:    5    -1959.545702    -1959.545702    -1959.545702  0.000001 -3.718661  0.000042
     spin moment: S , {S} =    0.00000  -0.00000   0.00000   0.00000
   scf:    6    -1959.545702    -1959.545702    -1959.545702  0.000000 -3.718661  0.000019
     spin moment: S , {S} =    0.00000  -0.00000   0.00000   0.00000
   scf:    7    -1959.545702    -1959.545702    -1959.545702  0.000000 -3.718661  0.000005
     spin moment: S , {S} =    0.00000  -0.00000   0.00000   0.00000
   scf:    8    -1959.545702    -1959.545702    -1959.545702  0.000000 -3.718660  0.000003
     spin moment: S , {S} =    0.00000  -0.00000   0.00000   0.00000
   scf:    9    -1959.545702    -1959.545702    -1959.545702  0.000000 -3.718661  0.000001
     spin moment: S , {S} =    0.00000  -0.00000   0.00000   0.00000
   scf:   10    -1959.545702    -1959.545702    -1959.545702  0.000000 -3.718661  0.000000
     spin moment: S , {S} =    0.00000  -0.00000   0.00000   0.00000

[...]

                        Begin MD quenched step =    300

outcoor: Atomic coordinates (Ang):
    2.22639502   -5.20887339    0.00113842   1       1  H
    1.34210819   -4.63231181    0.00254147   2       2  N
   -0.31387573   -5.35482501    0.01738018   3       3  Si
   -0.40851123   -6.84647117    0.00007023   1       4  H
   -1.68400389   -4.33864336    0.00745551   2       5  N
   -0.98246232   -2.68585898   -0.07154849   3       6  Si
   -1.31905134   -0.51763396    0.02812081   3       7  Si
   -2.98827632    0.04452788   -0.00089375   2       8  N
   -3.34641704    1.02970942    0.00194976   1       9  H
   -3.75793334   -0.68534630    0.00338228   1      10  H
    0.05599296    0.53662160   -0.00777549   2      11  N
    1.70121583   -0.00312387   -0.00460326   3      12  Si
    2.70257596    1.12129471   -0.00011040   1      13  H
    2.45296479   -1.57796182   -0.01609106   2      14  N
    1.20849214   -2.79563243    0.00345255   3      15  Si

outcell: Unit cell vectors (Ang):
       14.779133    0.000000    0.000000
        0.000000   16.638097    0.000000
        0.000000    0.000000    9.854683

outcell: Cell vector modules (Ang)   :   14.779133   16.638097    9.854683
outcell: Cell angles (23,13,12) (deg):     90.0000     90.0000     90.0000
outcell: Cell volume (Ang**3)        :   2423.2335
<dSpData1D:S at geom step 300
  <sparsity:sparsity for geom step 300
    nrows_g=155 nrows=48 sparsity=.3007 nnzs=7225, refcount: 8>
  <dData1D:(new from dSpData1D) n=7225, refcount: 1>
refcount: 1>
new_DM -- step:   300
Re-using DM from previous geometries...
Number of DMs in history: 3
  Estimated Rank of xi*xj matrix:            3
 matrix rank:            3
Singular values:
  1.7322      1.7319     0.54677E-04 0.14277E-06
 DM extrapolation coefficients:
1  -0.71182
2   0.30655
3   1.40527
New DM after history re-use:
<dSpData2D:SpM extrapolated using coords
  <sparsity:sparsity for geom step 300
    nrows_g=155 nrows=48 sparsity=.3007 nnzs=7225, refcount: 12>
  <dData2D:(temp array for extrapolation) n=7225 m=8, refcount: 1>
refcount: 1>
     spin moment: S , {S} =    0.00000  -0.00000   0.00000   0.00000
No. of atoms with KB's overlaping orbs in proc 0. Max # of overlaps:      15     134
New grid distribution:   1
           1       1:   90    1:   48    1:   30
           2       1:   90    1:   48   31:   60
           3       1:   90   49:   96    1:   30
           4       1:   90   49:   96   31:   60

InitMesh: MESH =   180 x   192 x   120 =     4147200
InitMesh: (bp) =    90 x    96 x    60 =      518400
InitMesh: Mesh cutoff (required, used) =   340.000   368.042 Ry
ExtMesh (bp) on 0 =   202 x   152 x   142 =     4359968
New grid distribution:   2
           1      35:   90    1:   76    1:   60
           2       1:   34    1:   76    1:   60
           3      28:   90   77:   96    1:   60
           4       1:   27   77:   96    1:   60
New grid distribution:   3
           1       1:   49    1:   62    1:   60
           2      50:   90    1:   62    1:   60
           3       1:   49   63:   96    1:   60
           4      50:   90   63:   96    1:   60
Setting up quadratic distribution...
ExtMesh (bp) on 0 =   168 x   180 x   172 =     5201280
PhiOnMesh: Number of (b)points on node 0 =               255360
PhiOnMesh: nlist on node 0 =              1717257

        iscf     Eharris(eV)        E_KS(eV)     FreeEng(eV)     dDmax    Ef(eV) dHmax(eV)
   scf:    1    -1959.545841    -1959.546629    -1959.546629  0.000353 -3.713625  0.009445
     spin moment: S , {S} =    0.00000  -0.00000   0.00000   0.00000
   scf:    2    -1959.546603    -1959.546622    -1959.546622  0.000189 -3.714073  0.012596
     spin moment: S , {S} =    0.00000  -0.00000   0.00000   0.00000
   scf:    3    -1959.546633    -1959.546632    -1959.546632  0.000148 -3.713855  0.002587
     spin moment: S , {S} =    0.00000  -0.00000   0.00000   0.00000
   scf:    4    -1959.546632    -1959.546632    -1959.546632  0.000022 -3.713882  0.000428
     spin moment: S , {S} =    0.00000  -0.00000   0.00000   0.00000
   scf:    5    -1959.546632    -1959.546632    -1959.546632  0.000003 -3.713891  0.000122
     spin moment: S , {S} =    0.00000  -0.00000   0.00000   0.00000
   scf:    6    -1959.546632    -1959.546632    -1959.546632  0.000001 -3.713888  0.000051
     spin moment: S , {S} =    0.00000  -0.00000   0.00000   0.00000
   scf:    7    -1959.546632    -1959.546632    -1959.546632  0.000000 -3.713889  0.000024
     spin moment: S , {S} =    0.00000  -0.00000   0.00000   0.00000
   scf:    8    -1959.546632    -1959.546632    -1959.546632  0.000000 -3.713888  0.000010
     spin moment: S , {S} =    0.00000  -0.00000   0.00000   0.00000
   scf:    9    -1959.546632    -1959.546632    -1959.546632  0.000000 -3.713888  0.000005
     spin moment: S , {S} =    0.00000  -0.00000   0.00000   0.00000
   scf:   10    -1959.546632    -1959.546632    -1959.546632  0.000000 -3.713888  0.000002
     spin moment: S , {S} =    0.00000  -0.00000   0.00000   0.00000
   scf:   11    -1959.546632    -1959.546632    -1959.546632  0.000000 -3.713888  0.000001
     spin moment: S , {S} =    0.00000  -0.00000   0.00000   0.00000

SCF Convergence by DM+H criterion
max |DM_out - DM_in|         :     0.0000000523
max |H_out - H_in|      (eV) :     0.0000008851
SCF cycle converged after 11 iterations

Using DM_out to compute the final energy and forces
No. of atoms with KB's overlaping orbs in proc 0. Max # of overlaps:      15     134

siesta: E_KS(eV) =            -1959.5466
     spin moment: S , {S} =    0.00000  -0.00000   0.00000   0.00000

siesta: Atomic forces (eV/Ang):
     1   -0.019952    0.029578   -0.000267
     2    0.028332    0.016935    0.005897
     3    0.076899   -0.009103    0.020036
     4    0.000721   -0.000708    0.000105
     5    0.029343   -0.101989    0.006135
     6   -0.162095   -0.066131   -0.121193
     7   -0.150760   -0.091554    0.054766
     8   -0.085051    0.058372    0.001706
     9    0.007737    0.229575   -0.001746
    10    0.131079    0.142977   -0.007146
    11   -0.020952   -0.026863   -0.009536
    12   -0.036323   -0.026233   -0.001531
    13   -0.004945   -0.003188   -0.000194
    14   -0.012414    0.003212   -0.003002
    15   -0.024267    0.048733    0.017951
   Tot   -0.242647    0.203614   -0.038019
   Max    0.229575
   Res    0.067886    sqrt( Sum f_i^2 / 3N )
   Max    0.229575    constrained

Stress tensor Voigt[x,y,z,yz,xz,xy] (kbar):        0.61       -0.58        0.00       -0.00       -0.01        0.95
(Free)E + p*V (eV/cell)    -1959.5628
Target enthalpy (eV/cell)    -1959.5466

siesta: Stress tensor (static) (eV/Ang**3):
         0.000380    0.000595   -0.000004
         0.000595   -0.000351   -0.000002
        -0.000004   -0.000002    0.000007

siesta: Pressure (static):         -0.01916514  kBar

siesta: Stress tensor (total) (eV/Ang**3):
         0.000379    0.000595   -0.000005
         0.000595   -0.000361   -0.000001
        -0.000005   -0.000001    0.000003

siesta: Pressure (total):         -0.01068199  kBar

siesta: Temp_ion =      11.230 K

outcoor: Final (unrelaxed) atomic coordinates (Ang):
    2.22639502   -5.20887339    0.00113842   1       1  H
    1.34210819   -4.63231181    0.00254147   2       2  N
   -0.31387573   -5.35482501    0.01738018   3       3  Si
   -0.40851123   -6.84647117    0.00007023   1       4  H
   -1.68400389   -4.33864336    0.00745551   2       5  N
   -0.98246232   -2.68585898   -0.07154849   3       6  Si
   -1.31905134   -0.51763396    0.02812081   3       7  Si
   -2.98827632    0.04452788   -0.00089375   2       8  N
   -3.34641704    1.02970942    0.00194976   1       9  H
   -3.75793334   -0.68534630    0.00338228   1      10  H
    0.05599296    0.53662160   -0.00777549   2      11  N
    1.70121583   -0.00312387   -0.00460326   3      12  Si
    2.70257596    1.12129471   -0.00011040   1      13  H
    2.45296479   -1.57796182   -0.01609106   2      14  N
    1.20849214   -2.79563243    0.00345255   3      15  Si

siesta: Eigenvalues (eV):
ik =     1
  -21.2667  -21.2667  -21.1772  -21.1772  -19.7714  -19.7714  -19.5326  -19.5326  -19.0382  -19.0382
  -13.9507  -13.9507  -13.1683  -13.1683  -12.8425  -12.8425  -12.4003  -12.4003  -11.8806  -11.8806
  -11.2371  -11.2371  -10.5333  -10.5333   -9.5103   -9.5103   -9.0909   -9.0909   -8.5960   -8.5960
   -8.4105   -8.4105   -8.1843   -8.1843   -7.7028   -7.7028   -7.6007   -7.6007   -7.1169   -7.1169
   -6.6821   -6.6821   -6.5143   -6.5143   -6.1875   -6.1875   -5.8626   -5.8626   -4.5029   -4.5029
   -2.4742   -2.4742   -2.1720   -2.1720   -2.0368   -2.0368   -1.9112   -1.9112   -1.8057   -1.8057
   -0.8766   -0.8766   -0.6020   -0.6020   -0.4969   -0.4969    0.2323    0.2323    0.4015    0.4015
    0.8910    0.8910    1.0420    1.0420    1.6891    1.6891    1.8347    1.8347    2.2227    2.2227
    2.5006    2.5006    2.5915    2.5915    2.7123    2.7123    2.8400    2.8400    3.3694    3.3694
    3.7546    3.7546    3.9262    3.9262    4.3432    4.3432    4.4482    4.4482    4.7669    4.7669
    4.9085    4.9085    5.3295    5.3295    5.5740    5.5740    5.8513    5.8513    6.0111    6.0111
    6.4864    6.4864    6.9415    6.9415    7.0288    7.0288    7.2581    7.2581    7.3772    7.3772
    7.6362    7.6362    8.1069    8.1069    8.2235    8.2235    8.6271    8.6271    8.8021    8.8021
    8.9761    8.9761    9.2960    9.2960    9.4990    9.4990    9.6896    9.6896   10.1710   10.1710
   10.8250   10.8250   11.0213   11.0213   11.3502   11.3502   11.5172   11.5172   11.9928   11.9928
   12.6049   12.6049   12.9096   12.9096   13.1592   13.1592   13.5584   13.5584   14.2968   14.2968
   14.5030   14.5030   14.9510   14.9510   16.4754   16.4754   16.7313   16.7313   17.1052   17.1052
   18.0171   18.0171   18.3224   18.3224   18.6595   18.6595   18.8337   18.8337   19.5067   19.5067
   20.0105   20.0105   20.8351   20.8351   21.8583   21.8583   22.7324   22.7324   22.9895   22.9895
   24.3962   24.3962   25.5052   25.5052   25.8554   25.8554   26.1475   26.1475   28.3912   28.3912
   29.3692   29.3692   30.1155   30.1155   30.5137   30.5137   30.6148   30.6148   31.0849   31.0849
   31.2995   31.2995   31.8502   31.8502   32.4130   32.4130   33.4253   33.4253   34.4857   34.4857
   35.6916   35.6916   36.8368   36.8368   37.1203   37.1203   37.2682   37.2682   37.4452   37.4452
   39.6402   39.6402   39.9181   39.9181   40.9754   40.9754   41.5729   41.5729   42.0614   42.0614
   42.9707   42.9707   43.4521   43.4521   44.2162   44.2162   44.4701   44.4701   45.0323   45.0323
   45.5238   45.5238   46.1535   46.1535   46.5321   46.5321   46.7479   46.7479   48.2875   48.2875
   49.9591   49.9591   50.3793   50.3793   53.3890   53.3890   53.5747   53.5747   54.3273   54.3273
   55.3418   55.3418   56.9736   56.9736   57.6593   57.6593   59.4844   59.4844   60.0610   60.0610
   60.9363   60.9363   62.0446   62.0446   63.4474   63.4474   64.7993   64.7993   66.4320   66.4320
   67.9364   67.9364   71.7759   71.7759   76.6220   76.6220   92.9053   92.9053   95.4140   95.4140
   99.9764   99.9764  101.9500  101.9500  111.6740  111.6740  122.5105  122.5105  140.1871  140.1871
siesta: Fermi energy =      -3.713888 eV

siesta: Program's energy decomposition (eV):
siesta: Ebs     =      -565.521934
siesta: Eions   =      1645.679058
siesta: Ena     =       214.767807
siesta: Ekin    =      1307.780100
siesta: Enl     =     -1323.322544
siesta: Eso     =        -0.002269
siesta: Edftu   =         0.000000
siesta: DEna    =        28.574173
siesta: DUscf   =         7.183955
siesta: DUext   =         0.000000
siesta: Exc     =      -548.848795
siesta: eta*DQ  =         0.000000
siesta: Emadel  =         0.000000
siesta: Emeta   =         0.000000
siesta: Emolmec =         0.000000
siesta: Ekinion =         0.020321
siesta: Eharris =     -1959.526311
siesta: Etot    =     -1959.526311
siesta: FreeEng =     -1959.526311

siesta: Final energy (eV):
siesta:  Band Struct. =    -565.521934
siesta:       Kinetic =    1307.780100
siesta:       Hartree =    3304.659453
siesta:       Edftu   =       0.000000
siesta:       Eso     =      -0.002269
siesta:    Ext. field =       0.000000
siesta:   Exch.-corr. =    -548.848795
siesta:  Ion-electron =   -7770.074451
siesta:       Ion-ion =    1746.939330
siesta:       Ekinion =       0.020321
siesta:         Total =   -1959.526311
siesta:         Fermi =      -3.713888

siesta: Atomic forces (eV/Ang):
siesta:      1   -0.019952    0.029578   -0.000267
siesta:      2    0.028332    0.016935    0.005897
siesta:      3    0.076899   -0.009103    0.020036
siesta:      4    0.000721   -0.000708    0.000105
siesta:      5    0.029343   -0.101989    0.006135
siesta:      6   -0.162095   -0.066131   -0.121193
siesta:      7   -0.150760   -0.091554    0.054766
siesta:      8   -0.085051    0.058372    0.001706
siesta:      9    0.007737    0.229575   -0.001746
siesta:     10    0.131079    0.142977   -0.007146
siesta:     11   -0.020952   -0.026863   -0.009536
siesta:     12   -0.036323   -0.026233   -0.001531
siesta:     13   -0.004945   -0.003188   -0.000194
siesta:     14   -0.012414    0.003212   -0.003002
siesta:     15   -0.024267    0.048733    0.017951
siesta: ----------------------------------------
siesta:    Tot   -0.242647    0.203614   -0.038019

siesta: Stress tensor (static) (eV/Ang**3):
siesta:     0.000380    0.000595   -0.000004
siesta:     0.000595   -0.000351   -0.000002
siesta:    -0.000004   -0.000002    0.000007

siesta: Cell volume =       2423.233521 Ang**3

siesta: Pressure (static):
siesta:                Solid            Molecule  Units
siesta:          -0.00000013         -0.00000124  Ry/Bohr**3
siesta:          -0.00001196         -0.00011395  eV/Ang**3
siesta:          -0.01916514         -0.18256430  kBar
(Free)E+ p_basis*V_orbitals  =       -1948.864762
(Free)Eharris+ p_basis*V_orbitals  =       -1948.864762
     spin moment: S , {S} =    0.00000  -0.00000   0.00000   0.00000

siesta: Electric dipole (a.u.)  =   -0.450442   -0.754625    0.038113
siesta: Electric dipole (Debye) =   -1.144910   -1.918068    0.096873

cite: Please see "Adenine.bib" for an exhaustive BiBTeX file.
cite: Please clearly indicate Siesta version in published work: v4.1.5-1-g384057250
cite: This calculation has made use of the following articles
cite: which are encouraged to be cited in a published work.
        Primary SIESTA paper
          DOI: www.doi.org/10.1088/0953-8984/14/11/302
        Spin-orbit coupling (on-site approximation)
          DOI: www.doi.org/10.1088/0953-8984/19/19/489001

WARNING: alloc-realloc-dealloc name mismatch
         Name: atomlist isa
         Node:     0
         Subsequent mismatches will not be reported
>> End of run:  14-OCT-2023  13:44:26
Job completed