>> Start of run:  18-FEB-2024  20:35:10

reinit: Reading from standard input
reinit: Dumped input in INPUT_TMP.90092
************************** Dump of input data file ****************************
# mpirun -np 4 siesta-4.1.5 < AT.fdf > AT.out &
SystemLabel      AT
NumberOfAtoms    30
NumberOfSpecies  4
%block ChemicalSpeciesLabel
    1    1  H
    2    7  N
    3   14  Si
    4    8  O
%endblock ChemicalSpeciesLabel
# This overrides Defaults.fdf configuration
MD.TypeOfRun                Verlet # CG, Verlet
MD.Steps                    0
MaxSCFIterations            200
SCF.MustConverge            F
AtomicCoordinatesFormat NotScaledCartesianAng
%block AtomicCoordinatesAndAtomicSpecies
    2.28494382   -5.19529124    0.00000000   1       1  H
    1.37433094   -4.66471070    0.00000000   2       2  N
   -0.21830245   -5.49458215    0.00000000   3       3  Si
   -0.17484108   -6.98516892    0.00000000   1       4  H
   -1.66171682   -4.58600741    0.00000000   2       5  N
   -1.09026419   -2.87456374    0.00000000   3       6  Si
   -1.53038332   -0.70765692    0.00000000   3       7  Si
   -3.14415959   -0.09186471    0.00000000   2       8  N
   -3.40268075    0.95848335    0.00000000   1       9  H
   -3.95073599   -0.76720972    0.00000000   1      10  H
   -0.17836637    0.41349951    0.00000000   2      11  N
    1.49520211   -0.04739960    0.00000000   3      12  Si
    2.45603905    1.10727302    0.00000000   1      13  H
    2.30451743   -1.58574382    0.00000000   2      14  N
    1.10725559   -2.84610319    0.00000000   3      15  Si
    0.61321457    7.23858166    0.00000000   1      16  H
   -0.19549611    6.54637578    0.00000000   2      17  N
   -1.85208595    7.25949588    0.00000000   3      18  Si
   -1.75522078    8.77022109    0.00000000   1      19  H
   -3.57824230    5.91644775    0.00000000   3      20  Si
   -5.93269655    5.90846082    0.00000000   3      21  Si
   -6.49511467    6.64295047   -1.20183078   1      22  H
   -6.23251030    4.42936969   -0.08618332   1      23  H
   -6.49522713    6.47329328    1.28814761   1      24  H
   -2.64885166    3.84587652    0.00000000   3      25  Si
   -3.59832002    2.55734039    0.00000000   4      26  O
   -0.85790679    3.67214105    0.00000000   2      27  N
   -0.52691543    2.63978407    0.00000000   1      28  H
    0.45055143    4.86668747    0.00000000   3      29  Si
    2.01648836    4.59944062    0.00000000   4      30  O
%endblock AtomicCoordinatesAndAtomicSpecies
# Unit Cell
LatticeConstant 1.0 Ang
%block LatticeVectors
    16.855075   0.000000    0.000000
    0.000000    24.528070   0.000000
    0.000000    0.000000    10.315061
%endblock LatticeVectors
%include ../../../Defaults.fdf
************************** End of input data file *****************************

reinit: -----------------------------------------------------------------------
reinit: System Name:
reinit: -----------------------------------------------------------------------
reinit: System Label: AT
reinit: -----------------------------------------------------------------------

initatom: Reading input for the pseudopotentials and atomic orbitals ----------
Species number:   1 Atomic number:    1 Label: H
Species number:   2 Atomic number:    7 Label: N
Species number:   3 Atomic number:   14 Label: Si
Species number:   4 Atomic number:    8 Label: O

Ground state valence configuration:   1s01
Reading pseudopotential information in formatted form from H.psf

Pseudopotential generated from a relativistic atomic calculation

Valence configuration for pseudopotential generation:
1s( 1.00) rc: 0.01
2p( 0.00) rc: 0.60
3d( 0.00) rc: 1.99
4f( 0.00) rc: 2.49
Ground state valence configuration:   2s02  2p03
Reading pseudopotential information in formatted form from N.psf

[...]

Valence configuration for pseudopotential generation:
3s( 2.00) rc: 1.67
3p( 2.00) rc: 2.04
3d( 0.00) rc: 2.89
4f( 0.00) rc: 2.49
Ground state valence configuration:   2s02  2p04
Reading pseudopotential information in formatted form from O.psf

Pseudopotential generated from a relativistic atomic calculation

Valence configuration for pseudopotential generation:
2s( 2.00) rc: 0.45
2p( 4.00) rc: 0.92
3d( 0.00) rc: 2.24
4f( 0.00) rc: 0.25
For H, standard SIESTA heuristics set lmxkb to 2
 (one more than the basis l, including polarization orbitals).
Use PS.lmax or PS.KBprojectors blocks to override.
For N, standard SIESTA heuristics set lmxkb to 3
 (one more than the basis l, including polarization orbitals).
Use PS.lmax or PS.KBprojectors blocks to override.
For Si, standard SIESTA heuristics set lmxkb to 3
 (one more than the basis l, including polarization orbitals).
Use PS.lmax or PS.KBprojectors blocks to override.
For O, standard SIESTA heuristics set lmxkb to 3
 (one more than the basis l, including polarization orbitals).
Use PS.lmax or PS.KBprojectors blocks to override.

<basis_specs>
H                    Z=   1    Mass=  1.0100        Charge= 0.17977+309
Lmxo=0 Lmxkb= 2    BasisType=split      Semic=F
L=0  Nsemic=0  Cnfigmx=1
          i=1  nzeta=2  polorb=1  (1s)
            splnorm:   0.62000
               vcte:    0.0000
               rinn:    0.0000
               qcoe:    0.0000
               qyuk:    0.0000
               qwid:   0.10000E-01
                rcs:    0.0000      0.0000
            lambdas:    1.0000      1.0000
L=0  Nkbl=1  erefs: 0.17977+309
L=1  Nkbl=1  erefs: 0.17977+309
L=2  Nkbl=1  erefs: 0.17977+309
</basis_specs>

atom: Called for H                     (Z =   1)

read_vps: Pseudopotential generation method:
read_vps: ATM4.2.7  Troullier-Martins
Valence charge for ps generation:    1.00000

xc_check: Exchange-correlation functional:
xc_check: GGA Perdew, Burke & Ernzerhof 1996
V l=0 = -2*Zval/r beyond r=  0.0098
V l=1 = -2*Zval/r beyond r=  0.5817
V l=2 = -2*Zval/r beyond r=  1.9372
All V_l potentials equal beyond r=  1.9372
This should be close to max(r_c) in ps generation
All pots = -2*Zval/r beyond r=  1.9372

VLOCAL1: 99.0% of the norm of Vloc inside     11.567 Ry
VLOCAL1: 99.9% of the norm of Vloc inside     26.362 Ry
atom: Maximum radius for 4*pi*r*r*local-pseudopot. charge    2.25106
atom: Maximum radius for r*vlocal+2*Zval:    1.91306
GHOST: No ghost state for L =  0
GHOST: No ghost state for L =  1
GHOST: No ghost state for L =  2

KBgen: Kleinman-Bylander projectors:
   l= 0   rc=  2.036604   el= -0.477180   Ekb= -6.081590   kbcos= -0.277285
   l= 1   rc=  2.195416   el=  0.001076   Ekb= -0.926943   kbcos= -0.034643
   l= 2   rc=  2.251056   el=  0.002010   Ekb= -0.130941   kbcos= -0.009788

KBgen: Total number of Kleinman-Bylander projectors:    9
atom: -------------------------------------------------------------------------

atom: SANKEY-TYPE ORBITALS:
atom: Selected multiple-zeta basis: split

SPLIT: Orbitals with angular momentum L= 0

SPLIT: Basis orbitals for state 1s

SPLIT: PAO cut-off radius determined from an
SPLIT: energy shift=  0.002000 Ry

   izeta = 1
                 lambda =    1.000000
                     rc =    6.518340
                 energy =   -0.475305
                kinetic =    0.912139
    potential(screened) =   -1.387444
       potential(ionic) =   -1.907295

   izeta = 2
                 rmatch =    2.141150
              splitnorm =    0.620000
                 energy =    0.566467
                kinetic =    3.772856
    potential(screened) =   -3.206389
       potential(ionic) =   -3.759093

POLgen: Perturbative polarization orbital with L=  1

POLgen: Polarization orbital for state 1s

   izeta = 1
                     rc =    6.518340
                 energy =    0.533861
                kinetic =    1.121086
    potential(screened) =   -0.587225
       potential(ionic) =   -1.053027
atom: Total number of Sankey-type orbitals:  5

atm_pop: Valence configuration (for local Pseudopot. screening):
 1s( 1.00)
Vna: chval, zval:    1.00000   1.00000

Vna:  Cut-off radius for the neutral-atom potential:   6.518340

atom: _________________________________________________________________________

<basis_specs>
N                    Z=   7    Mass=  14.010        Charge= 0.17977+309
Lmxo=1 Lmxkb= 3    BasisType=split      Semic=F
L=0  Nsemic=0  Cnfigmx=2
          i=1  nzeta=2  polorb=0  (2s)
            splnorm:   0.28000
               vcte:    0.0000
               rinn:    0.0000
               qcoe:    0.0000
               qyuk:    0.0000
               qwid:   0.10000E-01
                rcs:    0.0000      0.0000
            lambdas:    1.0000      1.0000
L=1  Nsemic=0  Cnfigmx=2
          i=1  nzeta=2  polorb=1  (2p)
            splnorm:   0.28000
               vcte:    0.0000
               rinn:    0.0000
               qcoe:    0.0000
               qyuk:    0.0000
               qwid:   0.10000E-01
                rcs:    0.0000      0.0000
            lambdas:    1.0000      1.0000
L=0  Nkbl=1  erefs: 0.17977+309
L=1  Nkbl=1  erefs: 0.17977+309
L=2  Nkbl=1  erefs: 0.17977+309
L=3  Nkbl=1  erefs: 0.17977+309
</basis_specs>

[...]

KBgen: Kleinman-Bylander projectors:
   l= 0   rc=  3.417763   el= -1.365098   Ekb= -4.433130   kbcos= -0.707855
   l= 1   rc=  3.375302   el= -0.521201   Ekb=-13.264039   kbcos= -0.535594
   l= 2   rc=  3.872880   el=  0.001991   Ekb= -0.641094   kbcos= -0.062456
   l= 3   rc=  3.970931   el=  0.003093   Ekb= -0.474517   kbcos= -0.018236

[...]

SPLIT: Basis orbitals for state 2p

[...]

POLgen: Polarization orbital for state 2p

[...]

atm_pop: Valence configuration (for local Pseudopot. screening):
 2s( 2.00)
 2p( 3.00)
Vna: chval, zval:    5.00000   5.00000

[...]

KBgen: Kleinman-Bylander projectors:
   l= 0   rc=  3.075247   el= -0.794092   Ekb=  5.879390   kbcos=  0.167461
   l= 1   rc=  3.153101   el= -0.300068   Ekb=  2.642817   kbcos=  0.058301
   l= 2   rc=  3.273594   el=  0.001958   Ekb= -1.185135   kbcos= -0.104411
   l= 3   rc=  3.232927   el=  0.003046   Ekb= -0.497174   kbcos= -0.015889

[...]

<basis_specs>
O                    Z=   8    Mass=  16.000        Charge= 0.17977+309
Lmxo=1 Lmxkb= 3    BasisType=split      Semic=F
L=0  Nsemic=0  Cnfigmx=2
          i=1  nzeta=2  polorb=0  (2s)
            splnorm:   0.28000
               vcte:    0.0000
               rinn:    0.0000
               qcoe:    0.0000
               qyuk:    0.0000
               qwid:   0.10000E-01
                rcs:    0.0000      0.0000
            lambdas:    1.0000      1.0000
L=1  Nsemic=0  Cnfigmx=2
          i=1  nzeta=2  polorb=1  (2p)
            splnorm:   0.28000
               vcte:    0.0000
               rinn:    0.0000
               qcoe:    0.0000
               qyuk:    0.0000
               qwid:   0.10000E-01
                rcs:    0.0000      0.0000
            lambdas:    1.0000      1.0000
L=0  Nkbl=1  erefs: 0.17977+309
L=1  Nkbl=1  erefs: 0.17977+309
L=2  Nkbl=1  erefs: 0.17977+309
L=3  Nkbl=1  erefs: 0.17977+309
</basis_specs>

atom: Called for O                     (Z =   8)

read_vps: Pseudopotential generation method:
read_vps: ATM4.2.7  Troullier-Martins
Valence charge for ps generation:    6.00000

xc_check: Exchange-correlation functional:
xc_check: GGA Perdew, Burke & Ernzerhof 1996
V l=0 = -2*Zval/r beyond r=  1.1000
[...]
    nrows_g=302 nrows=48 sparsity=.1040 nnzs=9487, refcount: 8>
  <dData1D:(new from dSpData1D) n=9487, refcount: 1>
refcount: 1>
new_DM -- step:     1
Initializing Density Matrix...

Attempting to read DM from file... Succeeded...
DM from file:
<dSpData2D:IO-DM: AT.DM
  <sparsity:IO-DM: AT.DM
    nrows_g=302 nrows=48 sparsity=.1040 nnzs=9487, refcount: 1>
  <dData2D:(new from dSpData2D) n=9487 m=8, refcount: 1>
refcount: 1>
DM to be used:
<dSpData2D:Re-structured SpM
  <sparsity:sparsity for geom step 1
    nrows_g=302 nrows=48 sparsity=.1040 nnzs=9487, refcount: 9>
  <dData2D:(new in restruct) n=9487 m=8, refcount: 1>
refcount: 1>
     spin moment: S , {S} =    0.00000   0.00000  -0.00000   0.00000
No. of atoms with KB's overlaping orbs in proc 0. Max # of overlaps:      28     195

Initializing spin-orbit part of the Hamiltonian
  Adding spin-orbit effects for H
  Adding spin-orbit effects for N
  Adding spin-orbit effects for Si
  Adding spin-orbit effects for O

New grid distribution:   1
           1       1:   96    1:   72    1:   15
           2       1:   96    1:   72   16:   30
           3       1:   96    1:   72   31:   45
           4       1:   96    1:   72   46:   60
           5       1:   96   73:  144    1:   15
           6       1:   96   73:  144   16:   30
           7       1:   96   73:  144   31:   45
           8       1:   96   73:  144   46:   60

InitMesh: MESH =   192 x   288 x   120 =     6635520
InitMesh: (bp) =    96 x   144 x    60 =      829440
InitMesh: Mesh cutoff (required, used) =   340.000   358.627 Ry
ExtMesh (bp) on 0 =   200 x   180 x   123 =     4428000
New grid distribution:   2
           1      72:   96   40:  121    1:   60
           2       1:   76    1:   22    1:   60
           3       1:   76   23:   39    1:   60
           4      77:   96   20:   39    1:   60
           5       1:   71   40:  123    1:   60
           6       1:   71  124:  144    1:   60
           7      72:   96  122:  144    1:   60
           8      77:   96    1:   19    1:   60
New grid distribution:   3
           1      66:   96   50:  113    1:   60
           2       1:   59    1:   26    1:   60
           3       1:   59   27:   49    1:   60
           4      60:   96   27:   49    1:   60
           5       1:   65   50:  117    1:   60
           6       1:   65  118:  144    1:   60
           7      60:   96    1:   26    1:   60
           8      66:   96  114:  144    1:   60
Setting up quadratic distribution...
ExtMesh (bp) on 0 =   129 x   190 x   168 =     4117680
PhiOnMesh: Number of (b)points on node 0 =               123000
PhiOnMesh: nlist on node 0 =              1593903

stepf: Fermi-Dirac step function

siesta: Program's energy decomposition (eV):
siesta: Ebs     =     -1118.628644
siesta: Eions   =      3553.971015
siesta: Ena     =       374.799556
siesta: Ekin    =      2747.147194
siesta: Enl     =     -2526.298331
siesta: Eso     =        -0.004703
siesta: Edftu   =         0.000000
siesta: DEna    =        37.400194
siesta: DUscf   =        13.633516
siesta: DUext   =         0.000000
siesta: Exc     =     -1092.351417
siesta: eta*DQ  =         0.000000
siesta: Emadel  =         0.000000
siesta: Emeta   =         0.000000
siesta: Emolmec =         0.000000
siesta: Ekinion =         0.000000
siesta: Eharris =     -3999.645007
siesta: Etot    =     -3999.645007
siesta: FreeEng =     -3999.645071

        iscf     Eharris(eV)        E_KS(eV)     FreeEng(eV)     dDmax    Ef(eV) dHmax(eV)
   scf:    1    -3999.645007    -3999.645007    -3999.645071  0.000000 -3.933622  0.000001
     spin moment: S , {S} =    0.00000  -0.00000  -0.00000   0.00000

SCF Convergence by DM+H criterion
max |DM_out - DM_in|         :     0.0000000865
max |H_out - H_in|      (eV) :     0.0000006222
SCF cycle converged after 1 iterations

Using DM_out to compute the final energy and forces
No. of atoms with KB's overlaping orbs in proc 0. Max # of overlaps:      28     195

siesta: E_KS(eV) =            -3999.6450

siesta: E_KS - E_eggbox =     -3999.6450
     spin moment: S , {S} =    0.00000  -0.00000  -0.00000   0.00000

siesta: Atomic forces (eV/Ang):
     1    0.000027   -0.000009   -0.000001
     2    0.000005    0.000002   -0.000003
     3    0.000296    0.000064   -0.000001
     4    0.000003   -0.000000    0.000001
     5    0.000105    0.000099   -0.000004
     6    0.000085    0.000071   -0.000001
     7    0.000113   -0.000024   -0.000016
     8    0.000113   -0.000025    0.000064
     9   -0.000003   -0.000004   -0.000084
    10    0.000003   -0.000002   -0.000010
    11   -0.000013    0.000017    0.000008
    12    0.000247   -0.000031    0.000001
    13    0.000003    0.000001    0.000001
    14    0.000141    0.000081   -0.000003
    15    0.000371    0.000048    0.000012
    16    0.000050    0.000066   -0.000938
    17    0.001498   -0.000040   -0.000827
    18    0.004755    0.001918    0.005452
    19    0.000014    0.000028   -0.001545
    20    0.001186    0.000211   -0.001009
    21    0.003574    0.000033   -0.005600
    22    0.000039   -0.000022    0.000040
    23    0.000025    0.000032    0.000001
    24    0.000037   -0.000014   -0.000037
    25    0.000736   -0.001148    0.000929
    26   -0.000018   -0.000038    0.000379
    27    0.000648   -0.000516   -0.000540
    28    0.000004   -0.000003   -0.000093
    29    0.000592   -0.000289   -0.000166
    30    0.000028    0.000014    0.000223
   Tot    0.014665    0.000517   -0.003766
   Max    0.005600
   Res    0.001123    sqrt( Sum f_i^2 / 3N )
   Max    0.005600    constrained

Stress tensor Voigt[x,y,z,yz,xz,xy] (kbar):        0.22       -0.30       -0.12       -0.02        0.00        0.39
(Free)E + p*V (eV/cell)    -3999.4709
Target enthalpy (eV/cell)    -3999.6451

siesta: Stress tensor (static) (eV/Ang**3):
         0.000140    0.000244    0.000001
         0.000244   -0.000187   -0.000013
         0.000001   -0.000013   -0.000075

siesta: Pressure (static):          0.06542428  kBar

siesta: Stress tensor (total) (eV/Ang**3):
         0.000140    0.000244    0.000001
         0.000244   -0.000187   -0.000013
         0.000001   -0.000013   -0.000075

siesta: Pressure (total):          0.06542428  kBar

siesta: Temp_ion =       0.000 K

siesta: Eigenvalues (eV):
ik =     1
  -23.0569  -23.0569  -22.9124  -22.9124  -21.8404  -21.8404  -21.2615  -21.2615  -21.0439  -21.0439
  -20.2750  -20.2750  -19.4801  -19.4801  -19.2673  -19.2673  -18.7371  -18.7371  -15.2081  -15.2081
  -14.2516  -14.2516  -13.6426  -13.6426  -13.5828  -13.5828  -13.2763  -13.2763  -12.9035  -12.9035
  -12.4305  -12.4305  -12.0173  -12.0173  -11.9194  -11.9194  -11.5141  -11.5141  -11.4372  -11.4372
  -10.8793  -10.8793  -10.7390  -10.7390  -10.2152  -10.2152   -9.7197   -9.7197   -9.4433   -9.4433
   -9.3342   -9.3342   -9.1083   -9.1083   -9.0917   -9.0917   -8.8519   -8.8519   -8.7313   -8.7313
   -8.5343   -8.5343   -8.3019   -8.3019   -8.2421   -8.2421   -8.1844   -8.1844   -8.1524   -8.1524
   -7.8361   -7.8361   -7.5242   -7.5242   -7.3950   -7.3950   -7.3589   -7.3589   -6.9922   -6.9922
   -6.9767   -6.9767   -6.7507   -6.7507   -6.7049   -6.7049   -6.3716   -6.3716   -6.3291   -6.3291
   -5.9166   -5.9166   -5.7634   -5.7634   -5.6217   -5.6217   -4.1861   -4.1861   -3.6811   -3.6811
   -2.8574   -2.8574   -2.4095   -2.4095   -2.3225   -2.3225   -2.1850   -2.1850   -2.1545   -2.1545
   -1.9760   -1.9760   -1.7823   -1.7823   -1.7702   -1.7702   -1.5641   -1.5641   -1.4269   -1.4269
   -1.2498   -1.2498   -0.4572   -0.4572   -0.3599   -0.3599   -0.2795   -0.2795   -0.2287   -0.2287
   -0.1330   -0.1330   -0.1024   -0.1024    0.0972    0.0972    0.5345    0.5345    0.5786    0.5786
    0.6202    0.6202    0.8362    0.8362    1.2838    1.2838    1.2930    1.2930    1.4057    1.4057
    1.4259    1.4259    1.6624    1.6624    1.8833    1.8833    2.1553    2.1553    2.2649    2.2649
    2.4137    2.4137    2.6042    2.6042    2.8301    2.8301    2.9623    2.9623    3.0868    3.0868
    3.1208    3.1208    3.1479    3.1479    3.1927    3.1927    3.3153    3.3153    3.5232    3.5232
    3.9207    3.9207    4.0411    4.0411    4.1781    4.1781    4.3341    4.3341    4.4331    4.4331
    4.5747    4.5747    4.7788    4.7788    4.7878    4.7878    4.9758    4.9758    5.0813    5.0813
    5.2913    5.2913    5.5337    5.5337    5.5574    5.5574    5.7338    5.7338    5.8059    5.8059
    6.0431    6.0431    6.1694    6.1694    6.2278    6.2278    6.4441    6.4441    6.6172    6.6172
    6.7635    6.7635    6.8353    6.8353    6.9703    6.9703    7.2405    7.2405    7.2793    7.2793
    7.5277    7.5277    7.5722    7.5722    7.7216    7.7216    7.7910    7.7910    7.9709    7.9709
    8.3906    8.3906    8.4195    8.4195    8.4855    8.4855    8.6613    8.6613    8.7895    8.7895
    8.9811    8.9811    9.1494    9.1494    9.1730    9.1730    9.3883    9.3883    9.6106    9.6106
    9.7622    9.7622    9.8488    9.8488    9.9305    9.9305    9.9978    9.9978   10.1495   10.1495
   10.6704   10.6704   10.8529   10.8529   11.0314   11.0314   11.2171   11.2171   11.3302   11.3302
   11.3740   11.3740   11.5224   11.5224   11.7647   11.7647   11.8622   11.8622   11.9271   11.9271
   12.3081   12.3081   12.3806   12.3806   12.4991   12.4991   12.8456   12.8456   12.9620   12.9620
   13.0704   13.0704   13.1405   13.1405   13.4931   13.4931   13.6440   13.6440   13.9793   13.9793
   14.0317   14.0317   14.4550   14.4550   14.5322   14.5322   14.9606   14.9606   15.1008   15.1008
   15.2039   15.2039   15.6355   15.6355   15.6973   15.6973   16.0145   16.0145   16.4345   16.4345
   16.9164   16.9164   17.0634   17.0634   17.1656   17.1656   17.2410   17.2410   17.7364   17.7364
   18.1023   18.1023   18.6462   18.6462   18.7248   18.7248   18.7765   18.7765   18.8396   18.8396
   18.9370   18.9370   19.2914   19.2914   19.8351   19.8351   20.0401   20.0401   20.6360   20.6360
   20.8590   20.8590   21.5537   21.5537   21.7874   21.7874   22.3241   22.3241   22.4176   22.4176
   22.6610   22.6610   23.0862   23.0862   23.2887   23.2887   23.4795   23.4795   24.5760   24.5760
   24.8068   24.8068   25.0153   25.0153   25.2642   25.2642   25.8144   25.8144   26.2611   26.2611
   26.6662   26.6662   26.7580   26.7580   26.9519   26.9519   27.9692   27.9692   28.6212   28.6212
   28.8209   28.8209   29.6662   29.6662   30.1558   30.1558   30.8047   30.8047   30.8591   30.8591
   31.1833   31.1833   31.2929   31.2929   31.3410   31.3410   31.4821   31.4821   32.1336   32.1336
   32.6096   32.6096   32.9772   32.9772   33.4453   33.4453   34.0980   34.0980   34.2227   34.2227
   34.5074   34.5074   35.2004   35.2004   36.0401   36.0401   36.2094   36.2094   36.8078   36.8078
   37.1663   37.1663   37.2764   37.2764   37.4404   37.4404   38.3832   38.3833   38.5494   38.5494
   39.1391   39.1391   39.4135   39.4135   40.2662   40.2662   40.3606   40.3606   40.5334   40.5334
   41.3503   41.3503   41.5681   41.5681   41.7559   41.7559   42.8929   42.8929   43.1604   43.1604
   43.4580   43.4580   43.7796   43.7796   43.8880   43.8880   44.3684   44.3684   44.7306   44.7306
   44.8214   44.8214   45.3711   45.3711   46.0490   46.0490   46.5179   46.5179   46.7575   46.7575
   46.9938   46.9938   47.4552   47.4552   48.0868   48.0868   48.0971   48.0971   48.6347   48.6347
   49.0992   49.0992   49.3396   49.3396   50.1043   50.1043   50.1648   50.1648   50.3711   50.3711
   50.7991   50.7991   50.8382   50.8382   51.4040   51.4040   52.6889   52.6889   52.8361   52.8361
   53.6978   53.6978   54.1586   54.1586   55.1473   55.1473   55.2867   55.2867   55.8196   55.8196
   56.6588   56.6588   56.8804   56.8804   57.6697   57.6697   58.4556   58.4556   58.9379   58.9379
   58.9743   58.9743   60.3801   60.3801   61.3098   61.3098   61.4433   61.4433   61.5687   61.5687
   62.8538   62.8538   63.4001   63.4001   64.0284   64.0284   64.9538   64.9538   66.1989   66.1989
   67.2462   67.2462   67.8556   67.8556   68.3603   68.3603   68.9554   68.9554   71.2581   71.2581
   71.9060   71.9060   72.7799   72.7799   83.5839   83.5839   88.7930   88.7930   90.1766   90.1766
   93.4401   93.4401   95.7460   95.7460   96.3727   96.3727   98.4011   98.4011  100.4578  100.4578
  102.8049  102.8049  103.6344  103.6344  118.6202  118.6202  121.9769  121.9769  124.3214  124.3214
  138.1906  138.1906  147.6340  147.6340
siesta: Fermi energy =      -3.933622 eV

siesta: Program's energy decomposition (eV):
siesta: Ebs     =     -1118.628644
siesta: Eions   =      3553.971015
siesta: Ena     =       374.799556
siesta: Ekin    =      2747.147194
siesta: Enl     =     -2526.298331
siesta: Eso     =        -0.004703
siesta: Edftu   =         0.000000
siesta: DEna    =        37.400194
siesta: DUscf   =        13.633516
siesta: DUext   =         0.000000
siesta: Exc     =     -1092.351417
siesta: eta*DQ  =         0.000000
siesta: Emadel  =         0.000000
siesta: Emeta   =         0.000000
siesta: Emolmec =         0.000000
siesta: Ekinion =         0.000000
siesta: Eharris =     -3999.645007
siesta: Etot    =     -3999.645007
siesta: FreeEng =     -3999.645071

siesta: Final energy (eV):
siesta:  Band Struct. =   -1118.628644
siesta:       Kinetic =    2747.147194
siesta:       Hartree =    7902.874294
siesta:       Edftu   =       0.000000
siesta:       Eso     =      -0.004703
siesta:    Ext. field =       0.000000
siesta:   Exch.-corr. =   -1092.351417
siesta:  Ion-electron =  -18253.767286
siesta:       Ion-ion =    4696.456911
siesta:       Ekinion =       0.000000
siesta:         Total =   -3999.645007
siesta:         Fermi =      -3.933622

siesta: Atomic forces (eV/Ang):
siesta:      1    0.000027   -0.000009   -0.000001
siesta:      2    0.000005    0.000002   -0.000003
siesta:      3    0.000296    0.000064   -0.000001
siesta:      4    0.000003   -0.000000    0.000001
siesta:      5    0.000105    0.000099   -0.000004
siesta:      6    0.000085    0.000071   -0.000001
siesta:      7    0.000113   -0.000024   -0.000016
siesta:      8    0.000113   -0.000025    0.000064
siesta:      9   -0.000003   -0.000004   -0.000084
siesta:     10    0.000003   -0.000002   -0.000010
siesta:     11   -0.000013    0.000017    0.000008
siesta:     12    0.000247   -0.000031    0.000001
siesta:     13    0.000003    0.000001    0.000001
siesta:     14    0.000141    0.000081   -0.000003
siesta:     15    0.000371    0.000048    0.000012
siesta:     16    0.000050    0.000066   -0.000938
siesta:     17    0.001498   -0.000040   -0.000827
siesta:     18    0.004755    0.001918    0.005452
siesta:     19    0.000014    0.000028   -0.001545
siesta:     20    0.001186    0.000211   -0.001009
siesta:     21    0.003574    0.000033   -0.005600
siesta:     22    0.000039   -0.000022    0.000040
siesta:     23    0.000025    0.000032    0.000001
siesta:     24    0.000037   -0.000014   -0.000037
siesta:     25    0.000736   -0.001148    0.000929
siesta:     26   -0.000018   -0.000038    0.000379
siesta:     27    0.000648   -0.000516   -0.000540
siesta:     28    0.000004   -0.000003   -0.000093
siesta:     29    0.000592   -0.000289   -0.000166
siesta:     30    0.000028    0.000014    0.000223
siesta: ----------------------------------------
siesta:    Tot    0.014665    0.000517   -0.003766

siesta: Stress tensor (static) (eV/Ang**3):
siesta:     0.000140    0.000244    0.000001
siesta:     0.000244   -0.000187   -0.000013
siesta:     0.000001   -0.000013   -0.000075

siesta: Cell volume =       4264.477888 Ang**3

siesta: Pressure (static):
siesta:                Solid            Molecule  Units
siesta:           0.00000044          0.00000045  Ry/Bohr**3
siesta:           0.00004083          0.00004169  eV/Ang**3
siesta:           0.06542428          0.06678857  kBar
(Free)E+ p_basis*V_orbitals  =       -3978.516986
(Free)Eharris+ p_basis*V_orbitals  =       -3978.516986
     spin moment: S , {S} =    0.00000  -0.00000  -0.00000   0.00000

siesta: Electric dipole (a.u.)  =   -1.345684    2.199847   -0.001690
siesta: Electric dipole (Debye) =   -3.420389    5.591458   -0.004295

cite: Please see "AT.bib" for an exhaustive BiBTeX file.
cite: Please clearly indicate Siesta version in published work: v4.1.5-1-g384057250
cite: This calculation has made use of the following articles
cite: which are encouraged to be cited in a published work.
        Primary SIESTA paper
          DOI: www.doi.org/10.1088/0953-8984/14/11/302
        Spin-orbit coupling (on-site approximation)
          DOI: www.doi.org/10.1088/0953-8984/19/19/489001

WARNING: alloc-realloc-dealloc name mismatch
         Name: atomlist isa
         Node:     0
         Subsequent mismatches will not be reported
>> End of run:  18-FEB-2024  20:36:52
Job completed