>> Start of run:  15-OCT-2023   9:23:50

reinit: Reading from standard input
reinit: Dumped input in INPUT_TMP.31998
************************** Dump of input data file ****************************
# mpirun -np 4 siesta-4.1.5 < Cytosine.fdf > Cytosine.out
SystemLabel      Cytosine
NumberOfAtoms    13
NumberOfSpecies  4
%block ChemicalSpeciesLabel
    1    1  H
    2    7  N
    3    14 Si
    4    8  O
%endblock ChemicalSpeciesLabel
# This overrides Defaults.fdf conf
MD.TypeOfRun                CG # CG, Verlet
MD.Steps                    0
AtomicCoordinatesFormat NotScaledCartesianAng
%block AtomicCoordinatesAndAtomicSpecies
    0.99446407    3.49874632    0.00000000   1       1  H
    0.25990692    2.73738523    0.00000000   2       2  N
   -1.43750707    3.23076129    0.00000000   3       3  Si
   -1.56659198    4.73960210    0.00000000   1       4  H
   -2.96939626    1.65863702    0.00000000   3       5  Si
   -4.44968551    1.87970321    0.00000000   1       6  H
   -1.74033533   -0.22942544    0.00000000   3       7  Si
   -2.49605866   -1.81159486    0.00000000   2       8  N
   -1.89727100   -2.68272681    0.00000000   1       9  H
   -3.53931086   -1.96886349    0.00000000   1      10  H
   -0.04887461   -0.24279353    0.00000000   2      11  N
    1.04567892    1.08882330    0.00000000   3      12  Si
    2.63459195    1.16277696    0.00000000   4      13  O
%endblock AtomicCoordinatesAndAtomicSpecies
# Unit Cell
LatticeConstant 1.0 Ang
%block LatticeVectors
    14.828907   0.000000    0.000000
    0.000000    14.495518   0.000000
    0.000000    0.000000    9.854683
%endblock LatticeVectors
%include ../../../Defaults.fdf
************************** End of input data file *****************************

reinit: -----------------------------------------------------------------------
reinit: System Name:
reinit: -----------------------------------------------------------------------
reinit: System Label: Cytosine
reinit: -----------------------------------------------------------------------

initatom: Reading input for the pseudopotentials and atomic orbitals ----------
Species number:   1 Atomic number:    1 Label: H
Species number:   2 Atomic number:    7 Label: N
Species number:   3 Atomic number:   14 Label: Si
Species number:   4 Atomic number:    8 Label: O

Ground state valence configuration:   1s01
Reading pseudopotential information in formatted form from H.psf

Pseudopotential generated from a relativistic atomic calculation

Valence configuration for pseudopotential generation:
1s( 1.00) rc: 0.01
2p( 0.00) rc: 0.60
3d( 0.00) rc: 1.99
4f( 0.00) rc: 2.49
Ground state valence configuration:   2s02  2p03
Reading pseudopotential information in formatted form from N.psf

[...]

Valence configuration for pseudopotential generation:
3s( 2.00) rc: 1.67
3p( 2.00) rc: 2.04
3d( 0.00) rc: 2.89
4f( 0.00) rc: 2.49
Ground state valence configuration:   2s02  2p04
Reading pseudopotential information in formatted form from O.psf

Pseudopotential generated from a relativistic atomic calculation

Valence configuration for pseudopotential generation:
2s( 2.00) rc: 0.45
2p( 4.00) rc: 0.92
3d( 0.00) rc: 2.24
4f( 0.00) rc: 0.25
For H, standard SIESTA heuristics set lmxkb to 2
 (one more than the basis l, including polarization orbitals).
Use PS.lmax or PS.KBprojectors blocks to override.
For N, standard SIESTA heuristics set lmxkb to 3
 (one more than the basis l, including polarization orbitals).
Use PS.lmax or PS.KBprojectors blocks to override.
For Si, standard SIESTA heuristics set lmxkb to 3
 (one more than the basis l, including polarization orbitals).
Use PS.lmax or PS.KBprojectors blocks to override.
For O, standard SIESTA heuristics set lmxkb to 3
 (one more than the basis l, including polarization orbitals).
Use PS.lmax or PS.KBprojectors blocks to override.

<basis_specs>
H                    Z=   1    Mass=  1.0100        Charge= 0.17977+309
Lmxo=0 Lmxkb= 2    BasisType=split      Semic=F
L=0  Nsemic=0  Cnfigmx=1
          i=1  nzeta=2  polorb=1  (1s)
            splnorm:   0.62000
               vcte:    0.0000
               rinn:    0.0000
               qcoe:    0.0000
               qyuk:    0.0000
               qwid:   0.10000E-01
                rcs:    0.0000      0.0000
            lambdas:    1.0000      1.0000
L=0  Nkbl=1  erefs: 0.17977+309
L=1  Nkbl=1  erefs: 0.17977+309
L=2  Nkbl=1  erefs: 0.17977+309
</basis_specs>

atom: Called for H                     (Z =   1)

read_vps: Pseudopotential generation method:
read_vps: ATM4.2.7  Troullier-Martins
Valence charge for ps generation:    1.00000

xc_check: Exchange-correlation functional:
xc_check: GGA Perdew, Burke & Ernzerhof 1996
V l=0 = -2*Zval/r beyond r=  0.0098
V l=1 = -2*Zval/r beyond r=  0.5817
V l=2 = -2*Zval/r beyond r=  1.9372
All V_l potentials equal beyond r=  1.9372
This should be close to max(r_c) in ps generation
All pots = -2*Zval/r beyond r=  1.9372

VLOCAL1: 99.0% of the norm of Vloc inside     11.567 Ry
VLOCAL1: 99.9% of the norm of Vloc inside     26.362 Ry
atom: Maximum radius for 4*pi*r*r*local-pseudopot. charge    2.25106
atom: Maximum radius for r*vlocal+2*Zval:    1.91306
GHOST: No ghost state for L =  0
GHOST: No ghost state for L =  1
GHOST: No ghost state for L =  2

KBgen: Kleinman-Bylander projectors:
   l= 0   rc=  2.036604   el= -0.477180   Ekb= -6.081590   kbcos= -0.277285
   l= 1   rc=  2.195416   el=  0.001076   Ekb= -0.926943   kbcos= -0.034643
   l= 2   rc=  2.251056   el=  0.002010   Ekb= -0.130941   kbcos= -0.009788

KBgen: Total number of Kleinman-Bylander projectors:    9
atom: -------------------------------------------------------------------------

atom: SANKEY-TYPE ORBITALS:
atom: Selected multiple-zeta basis: split

SPLIT: Orbitals with angular momentum L= 0

SPLIT: Basis orbitals for state 1s

SPLIT: PAO cut-off radius determined from an
SPLIT: energy shift=  0.002000 Ry

   izeta = 1
                 lambda =    1.000000
                     rc =    6.518340
                 energy =   -0.475305
                kinetic =    0.912139
    potential(screened) =   -1.387444
       potential(ionic) =   -1.907295

   izeta = 2
                 rmatch =    2.141150
              splitnorm =    0.620000
                 energy =    0.566467
                kinetic =    3.772856
    potential(screened) =   -3.206389
       potential(ionic) =   -3.759093

POLgen: Perturbative polarization orbital with L=  1

POLgen: Polarization orbital for state 1s

   izeta = 1
                     rc =    6.518340
                 energy =    0.533861
                kinetic =    1.121086
    potential(screened) =   -0.587225
       potential(ionic) =   -1.053027
atom: Total number of Sankey-type orbitals:  5

atm_pop: Valence configuration (for local Pseudopot. screening):
 1s( 1.00)
Vna: chval, zval:    1.00000   1.00000

Vna:  Cut-off radius for the neutral-atom potential:   6.518340

atom: _________________________________________________________________________

<basis_specs>
N                    Z=   7    Mass=  14.010        Charge= 0.17977+309
Lmxo=1 Lmxkb= 3    BasisType=split      Semic=F
L=0  Nsemic=0  Cnfigmx=2
          i=1  nzeta=2  polorb=0  (2s)
            splnorm:   0.28000
               vcte:    0.0000
               rinn:    0.0000
               qcoe:    0.0000
               qyuk:    0.0000
               qwid:   0.10000E-01
                rcs:    0.0000      0.0000
            lambdas:    1.0000      1.0000
L=1  Nsemic=0  Cnfigmx=2
          i=1  nzeta=2  polorb=1  (2p)
            splnorm:   0.28000
               vcte:    0.0000
               rinn:    0.0000
               qcoe:    0.0000
               qyuk:    0.0000
               qwid:   0.10000E-01
                rcs:    0.0000      0.0000
            lambdas:    1.0000      1.0000
L=0  Nkbl=1  erefs: 0.17977+309
L=1  Nkbl=1  erefs: 0.17977+309
L=2  Nkbl=1  erefs: 0.17977+309
L=3  Nkbl=1  erefs: 0.17977+309
</basis_specs>

[...]

KBgen: Kleinman-Bylander projectors:
   l= 0   rc=  3.417763   el= -1.365098   Ekb= -4.433130   kbcos= -0.707855
   l= 1   rc=  3.375302   el= -0.521201   Ekb=-13.264039   kbcos= -0.535594
   l= 2   rc=  3.872880   el=  0.001991   Ekb= -0.641094   kbcos= -0.062456
   l= 3   rc=  3.970931   el=  0.003093   Ekb= -0.474517   kbcos= -0.018236

[...]

SPLIT: Basis orbitals for state 2p

[...]

POLgen: Polarization orbital for state 2p

[...]

atm_pop: Valence configuration (for local Pseudopot. screening):
 2s( 2.00)
 2p( 3.00)
Vna: chval, zval:    5.00000   5.00000

[...]

KBgen: Kleinman-Bylander projectors:
   l= 0   rc=  3.075247   el= -0.794092   Ekb=  5.879390   kbcos=  0.167461
   l= 1   rc=  3.153101   el= -0.300068   Ekb=  2.642817   kbcos=  0.058301
   l= 2   rc=  3.273594   el=  0.001958   Ekb= -1.185135   kbcos= -0.104411
   l= 3   rc=  3.232927   el=  0.003046   Ekb= -0.497174   kbcos= -0.015889

[...]

<basis_specs>
O                    Z=   8    Mass=  16.000        Charge= 0.17977+309
Lmxo=1 Lmxkb= 3    BasisType=split      Semic=F
L=0  Nsemic=0  Cnfigmx=2
          i=1  nzeta=2  polorb=0  (2s)
            splnorm:   0.28000
               vcte:    0.0000
               rinn:    0.0000
               qcoe:    0.0000
               qyuk:    0.0000
               qwid:   0.10000E-01
                rcs:    0.0000      0.0000
            lambdas:    1.0000      1.0000
L=1  Nsemic=0  Cnfigmx=2
          i=1  nzeta=2  polorb=1  (2p)
            splnorm:   0.28000
               vcte:    0.0000
               rinn:    0.0000
               qcoe:    0.0000
               qyuk:    0.0000
               qwid:   0.10000E-01
                rcs:    0.0000      0.0000
            lambdas:    1.0000      1.0000
L=0  Nkbl=1  erefs: 0.17977+309
L=1  Nkbl=1  erefs: 0.17977+309
L=2  Nkbl=1  erefs: 0.17977+309
L=3  Nkbl=1  erefs: 0.17977+309
</basis_specs>

atom: Called for O                     (Z =   8)

read_vps: Pseudopotential generation method:
read_vps: ATM4.2.7  Troullier-Martins
Valence charge for ps generation:    6.00000

xc_check: Exchange-correlation functional:
xc_check: GGA Perdew, Burke & Ernzerhof 1996
V l=0 = -2*Zval/r beyond r=  1.1000
V l=1 = -2*Zval/r beyond r=  1.1000
V l=2 = -2*Zval/r beyond r=  2.2154
V l=3 = -2*Zval/r beyond r=  1.1000
All V_l potentials equal beyond r=  2.2154
This should be close to max(r_c) in ps generation
All pots = -2*Zval/r beyond r=  2.2154

VLOCAL1: 99.0% of the norm of Vloc inside      8.845 Ry
VLOCAL1: 99.9% of the norm of Vloc inside     20.157 Ry
atom: Maximum radius for 4*pi*r*r*local-pseudopot. charge    2.67231
atom: Maximum radius for r*vlocal+2*Zval:    2.32897
GHOST: No ghost state for L =  0
GHOST: No ghost state for L =  1
GHOST: No ghost state for L =  2
GHOST: No ghost state for L =  3

KBgen: Kleinman-Bylander projectors:
   l= 0   rc=  2.243238   el= -1.759686   Ekb=**********   kbcos= -0.171774
   l= 1   rc=  2.328968   el= -0.663873   Ekb=-14.506792   kbcos= -0.519897
   l= 2   rc=  2.573941   el=  0.002031   Ekb= -1.137373   kbcos= -0.019581
   l= 3   rc=  2.606321   el=  0.003153   Ekb= -1.013546   kbcos= -0.003122

KBgen: Total number of Kleinman-Bylander projectors:   16
[...]
  variant stable

  # Mixing options
  weight 0.2500
  weight.linear 0.2500
  history 6
  restart 24
  restart.save 3
%endblock SCF.Mixer.Pulay

DM_history_depth set to one: no extrapolation allowed by default for geometry relaxation
Size of DM history Fstack: 1
Total number of electrons:    42.000000
Total ionic charge:    42.000000

* ProcessorY, Blocksize:    2  24

* Orbital distribution balance (max,min):    48    24

Time-reversal symmetry not used.

siesta: k-grid: Number of k-points =     1
siesta: k-grid: Cutoff (effective) =     4.927 Ang
siesta: k-grid: Supercell and displacements
siesta: k-grid:    1   0   0      0.000
siesta: k-grid:    0   1   0      0.000
siesta: k-grid:    0   0   1      0.000

diag: Algorithm                                     = ELPA-1stage
diag: Parallel over k                               =   F
diag: Use parallel 2D distribution                  =   T
diag: Parallel block-size                           = 24
diag: Parallel distribution                         =     2 x     2
diag: Used triangular part                          = Lower
diag: Absolute tolerance                            =  0.100E-15
diag: Orthogonalization factor                      =  0.100E-05

ts: **************************************************************
ts: Save H and S matrices                           =    F
ts: Save DM and EDM matrices                        =    F
ts: Only save the overlap matrix S                  =    F
ts: **************************************************************

************************ Begin: TS CHECKS AND WARNINGS ************************
************************ End: TS CHECKS AND WARNINGS **************************

                        Single-point calculation

outcoor: Atomic coordinates (Ang):
    0.99446407    3.49874632    0.00000000   1       1  H
    0.25990692    2.73738523    0.00000000   2       2  N
   -1.43750707    3.23076129    0.00000000   3       3  Si
   -1.56659198    4.73960210    0.00000000   1       4  H
   -2.96939626    1.65863702    0.00000000   3       5  Si
   -4.44968551    1.87970321    0.00000000   1       6  H
   -1.74033533   -0.22942544    0.00000000   3       7  Si
   -2.49605866   -1.81159486    0.00000000   2       8  N
   -1.89727100   -2.68272681    0.00000000   1       9  H
   -3.53931086   -1.96886349    0.00000000   1      10  H
   -0.04887461   -0.24279353    0.00000000   2      11  N
    1.04567892    1.08882330    0.00000000   3      12  Si
    2.63459195    1.16277696    0.00000000   4      13  O

outcell: Unit cell vectors (Ang):
       14.828907    0.000000    0.000000
        0.000000   14.495518    0.000000
        0.000000    0.000000    9.854683

outcell: Cell vector modules (Ang)   :   14.828907   14.495518    9.854683
outcell: Cell angles (23,13,12) (deg):     90.0000     90.0000     90.0000
outcell: Cell volume (Ang**3)        :   2118.2906
<dSpData1D:S at geom step 0
  <sparsity:sparsity for geom step 0
    nrows_g=129 nrows=48 sparsity=.3702 nnzs=6161, refcount: 8>
  <dData1D:(new from dSpData1D) n=6161, refcount: 1>
refcount: 1>
new_DM -- step:     1
Initializing Density Matrix...

Attempting to read DM from file... Failed...
DM filled with atomic data:
<dSpData2D:DM initialized from atoms
  <sparsity:sparsity for geom step 0
    nrows_g=129 nrows=48 sparsity=.3702 nnzs=6161, refcount: 9>
  <dData2D:DM n=6161 m=8, refcount: 1>
refcount: 1>
     spin moment: S , {S} =   24.00000   0.00000   0.00000  24.00000
No. of atoms with KB's overlaping orbs in proc 0. Max # of overlaps:      13     125

Initializing spin-orbit part of the Hamiltonian
  Adding spin-orbit effects for H
  Adding spin-orbit effects for N
  Adding spin-orbit effects for Si
  Adding spin-orbit effects for O

New grid distribution:   1
           1       1:   90    1:   41    1:   30
           2       1:   90    1:   41   31:   60
           3       1:   90   42:   81    1:   30
           4       1:   90   42:   81   31:   60

InitMesh: MESH =   180 x   162 x   120 =     3499200
InitMesh: (bp) =    90 x    81 x    60 =      437400
InitMesh: Mesh cutoff (required, used) =   340.000   345.195 Ry
ExtMesh (bp) on 0 =   202 x   145 x   142 =     4159180
New grid distribution:   2
           1       1:   72    1:   16    1:   60
           2      73:   90    1:   18    1:   60
           3       1:   72   17:   81    1:   60
           4      73:   90   19:   81    1:   60
New grid distribution:   3
           1       1:   62    1:   22    1:   60
           2      63:   90    1:   32    1:   60
           3       1:   62   23:   81    1:   60
           4      63:   90   33:   81    1:   60
Setting up quadratic distribution...
ExtMesh (bp) on 0 =   184 x   120 x   172 =     3797760
PhiOnMesh: Number of (b)points on node 0 =                69120
PhiOnMesh: nlist on node 0 =              1139677

stepf: Fermi-Dirac step function

siesta: Program's energy decomposition (eV):
siesta: Ebs     =      -276.310901
siesta: Eions   =      1544.210757
siesta: Ena     =       161.284221
siesta: Ekin    =      1420.229335
siesta: Enl     =     -1349.151538
siesta: Eso     =        -0.001687
siesta: Edftu   =         0.000000
siesta: DEna    =        56.053611
siesta: DUscf   =        33.759291
siesta: DUext   =         0.000000
siesta: Exc     =      -510.424235
siesta: eta*DQ  =         0.000000
siesta: Emadel  =         0.000000
siesta: Emeta   =         0.000000
siesta: Emolmec =         0.000000
siesta: Ekinion =         0.000000
siesta: Eharris =     -1704.531956
siesta: Etot    =     -1732.461759
siesta: FreeEng =     -1732.463144

        iscf     Eharris(eV)        E_KS(eV)     FreeEng(eV)     dDmax    Ef(eV) dHmax(eV)
   scf:    1    -1704.531956    -1732.461759    -1732.463144  0.965603 -4.887420 20.956740
     spin moment: S , {S} =    0.00835  -0.00000  -0.00000   0.00835
   scf:    2    -1757.380702    -1748.083240    -1748.083244  0.163660 -4.661627  8.991786
     spin moment: S , {S} =    0.00007  -0.00000  -0.00000   0.00007
   scf:    3    -1750.497729    -1749.753833    -1749.753833  0.066740 -4.284374  6.591417
     spin moment: S , {S} =    0.00004   0.00000   0.00000   0.00004
   scf:    4    -1750.349571    -1750.139312    -1750.139312  0.039232 -4.218120  2.707743
     spin moment: S , {S} =    0.00001  -0.00000   0.00000   0.00001
   scf:    5    -1750.386049    -1750.290923    -1750.290923  0.023114 -3.876680  1.678614
     spin moment: S , {S} =    0.00001  -0.00000  -0.00000   0.00001
   scf:    6    -1750.449181    -1750.366871    -1750.366871  0.026141 -4.408579  0.445866
     spin moment: S , {S} =    0.00000  -0.00000  -0.00000   0.00000
   scf:    7    -1750.404326    -1750.385024    -1750.385024  0.010971 -4.434462  0.223606
     spin moment: S , {S} =    0.00000  -0.00000  -0.00000   0.00000
   scf:    8    -1750.396832    -1750.390742    -1750.390742  0.005123 -4.433545  0.118368
     spin moment: S , {S} =    0.00000  -0.00000  -0.00000   0.00000
   scf:    9    -1750.398982    -1750.394564    -1750.394564  0.005387 -4.439674  0.058645
     spin moment: S , {S} =    0.00000  -0.00000  -0.00000   0.00000
   scf:   10    -1750.398429    -1750.396227    -1750.396227  0.005023 -4.434840  0.021872
     spin moment: S , {S} =    0.00000   0.00000  -0.00000  -0.00000
   scf:   11    -1750.396648    -1750.396414    -1750.396414  0.001767 -4.429704  0.009852
     spin moment: S , {S} =    0.00000   0.00000  -0.00000  -0.00000
   scf:   12    -1750.396494    -1750.396450    -1750.396450  0.000810 -4.428633  0.005874
     spin moment: S , {S} =    0.00000   0.00000  -0.00000  -0.00000
   scf:   13    -1750.396472    -1750.396460    -1750.396460  0.000353 -4.427339  0.003794
     spin moment: S , {S} =    0.00000   0.00000  -0.00000   0.00000
   scf:   14    -1750.396473    -1750.396466    -1750.396466  0.000319 -4.426307  0.001940
     spin moment: S , {S} =    0.00000   0.00000  -0.00000   0.00000
   scf:   15    -1750.396468    -1750.396467    -1750.396467  0.000101 -4.425953  0.001317
     spin moment: S , {S} =    0.00000   0.00000  -0.00000   0.00000
   scf:   16    -1750.396469    -1750.396468    -1750.396468  0.000125 -4.425697  0.000517
     spin moment: S , {S} =    0.00000   0.00000  -0.00000   0.00000
   scf:   17    -1750.396468    -1750.396468    -1750.396468  0.000035 -4.425718  0.000211
     spin moment: S , {S} =    0.00000   0.00000  -0.00000   0.00000
   scf:   18    -1750.396468    -1750.396468    -1750.396468  0.000016 -4.425723  0.000115
     spin moment: S , {S} =    0.00000   0.00000  -0.00000   0.00000
   scf:   19    -1750.396468    -1750.396468    -1750.396468  0.000011 -4.425704  0.000079
     spin moment: S , {S} =    0.00000   0.00000  -0.00000  -0.00000
   scf:   20    -1750.396468    -1750.396468    -1750.396468  0.000008 -4.425699  0.000051
     spin moment: S , {S} =    0.00000   0.00000  -0.00000  -0.00000
   scf:   21    -1750.396468    -1750.396468    -1750.396468  0.000006 -4.425693  0.000027
     spin moment: S , {S} =    0.00000   0.00000  -0.00000  -0.00000
   scf:   22    -1750.396468    -1750.396468    -1750.396468  0.000004 -4.425694  0.000017
     spin moment: S , {S} =    0.00000   0.00000  -0.00000   0.00000
   scf:   23    -1750.396468    -1750.396468    -1750.396468  0.000002 -4.425692  0.000010
     spin moment: S , {S} =    0.00000   0.00000  -0.00000   0.00000
   scf:   24    -1750.396468    -1750.396468    -1750.396468  0.000001 -4.425691  0.000004
     spin moment: S , {S} =    0.00000   0.00000  -0.00000   0.00000
mix: Pulay -- resetting history
   scf:   25    -1750.396468    -1750.396468    -1750.396468  0.000000 -4.425691  0.000003
     spin moment: S , {S} =    0.00000   0.00000  -0.00000   0.00000
   scf:   26    -1750.396468    -1750.396468    -1750.396468  0.000000 -4.425692  0.000001
     spin moment: S , {S} =    0.00000   0.00000  -0.00000   0.00000
   scf:   27    -1750.396468    -1750.396468    -1750.396468  0.000000 -4.425692  0.000001
     spin moment: S , {S} =    0.00000   0.00000  -0.00000   0.00000

SCF Convergence by DM+H criterion
max |DM_out - DM_in|         :     0.0000001057
max |H_out - H_in|      (eV) :     0.0000006277
SCF cycle converged after 27 iterations

Using DM_out to compute the final energy and forces
No. of atoms with KB's overlaping orbs in proc 0. Max # of overlaps:      13     125

siesta: E_KS(eV) =            -1750.3965

siesta: E_KS - E_eggbox =     -1750.3965
     spin moment: S , {S} =    0.00000   0.00000  -0.00000   0.00000

siesta: Atomic forces (eV/Ang):
     1    0.000102    0.000353    0.000000
     2   -0.000591   -0.001599   -0.000000
     3   -0.003541    0.000016   -0.000000
     4    0.001205    0.000818    0.000000
     5   -0.000715   -0.001019   -0.000000
     6   -0.000870   -0.000995    0.000000
     7    0.000893   -0.000811   -0.000000
     8   -0.001349   -0.001673    0.000000
     9    0.000067   -0.000340    0.000000
    10   -0.002288   -0.000929    0.000000
    11   -0.000271   -0.000999    0.000000
    12   -0.002052    0.001002    0.000000
    13    0.003335    0.001078   -0.000000
   Tot   -0.006076   -0.005099   -0.000000
   Max    0.003541
   Res    0.001153    sqrt( Sum f_i^2 / 3N )
   Max    0.003541    constrained

Stress tensor Voigt[x,y,z,yz,xz,xy] (kbar):       -0.21        0.17       -0.15        0.00        0.00        0.12
(Free)E + p*V (eV/cell)    -1750.3079
Target enthalpy (eV/cell)    -1750.3965

siesta: Eigenvalues (eV):
ik =     1
  -21.9486  -21.9486  -21.5388  -21.5388  -21.0229  -21.0229  -19.4607  -19.4607  -14.6926  -14.6926
  -13.2679  -13.2679  -12.8416  -12.8416  -12.4104  -12.4104  -11.8814  -11.8814  -10.7674  -10.7674
  -10.0475  -10.0475   -9.5091   -9.5091   -8.6248   -8.6248   -8.3618   -8.3618   -7.7069   -7.7069
   -7.6725   -7.6725   -6.7563   -6.7563   -6.5051   -6.5051   -6.1560   -6.1560   -5.8629   -5.8629
   -5.4155   -5.4155   -3.1878   -3.1878   -2.2366   -2.2366   -1.8411   -1.8411   -1.7696   -1.7696
   -1.5350   -1.5350   -0.9968   -0.9968   -0.1769   -0.1769    0.2255    0.2255    0.7511    0.7511
    1.1680    1.1680    1.4539    1.4539    1.4757    1.4757    1.8974    1.8974    2.1508    2.1508
    2.9287    2.9287    3.1010    3.1010    3.3936    3.3936    4.1516    4.1516    4.3571    4.3571
    4.5345    4.5345    4.6534    4.6534    4.8631    4.8631    5.6294    5.6294    5.8138    5.8138
    5.9611    5.9611    6.2564    6.2564    6.6132    6.6132    6.8513    6.8513    7.1094    7.1094
    7.7750    7.7750    8.0405    8.0405    8.1051    8.1051    8.3009    8.3009    8.9931    8.9931
    9.2298    9.2298    9.7751    9.7751    9.7891    9.7891   10.1701   10.1701   10.8742   10.8742
   11.0485   11.0485   11.7644   11.7644   11.9059   11.9059   12.7838   12.7838   12.8045   12.8045
   13.5448   13.5448   13.9582   13.9582   14.3026   14.3026   14.9331   14.9331   15.3855   15.3855
   16.7094   16.7094   17.1915   17.1915   17.9073   17.9073   19.3344   19.3344   20.3192   20.3192
   21.0654   21.0654   21.1977   21.1977   22.0628   22.0628   23.0463   23.0463   23.8944   23.8944
   24.6739   24.6739   26.3187   26.3187   28.8968   28.8968   29.2370   29.2370   30.0841   30.0841
   31.0254   31.0254   31.1300   31.1300   31.3596   31.3596   31.7069   31.7069   32.6281   32.6281
   34.5287   34.5287   34.9722   34.9722   35.1563   35.1563   35.9289   35.9289   37.1432   37.1432
   37.8671   37.8671   38.9675   38.9675   40.0639   40.0639   40.8201   40.8201   41.1223   41.1223
   42.2411   42.2411   43.2127   43.2127   43.9547   43.9547   44.1590   44.1590   44.8395   44.8395
   46.4382   46.4382   49.3257   49.3257   51.0841   51.0841   51.3942   51.3942   51.6883   51.6883
   52.7146   52.7146   54.8484   54.8484   54.9130   54.9130   55.4749   55.4749   55.9360   55.9360
   56.5129   56.5129   58.9412   58.9412   60.2592   60.2592   61.2247   61.2247   61.8605   61.8605
   66.2918   66.2918   68.9451   68.9451   80.0580   80.0580   90.8276   90.8276   99.1841   99.1841
   99.7959   99.7959  110.8111  110.8111  126.5026  126.5026  139.2319  139.2319
siesta: Fermi energy =      -4.425692 eV

siesta: Program's energy decomposition (eV):
siesta: Ebs     =      -484.901136
siesta: Eions   =      1544.210757
siesta: Ena     =       161.284221
siesta: Ekin    =      1227.637342
siesta: Enl     =     -1142.539908
siesta: Eso     =        -0.001873
siesta: Edftu   =         0.000000
siesta: DEna    =        16.786210
siesta: DUscf   =         6.317486
siesta: DUext   =         0.000000
siesta: Exc     =      -475.669188
siesta: eta*DQ  =         0.000000
siesta: Emadel  =         0.000000
siesta: Emeta   =         0.000000
siesta: Emolmec =         0.000000
siesta: Ekinion =         0.000000
siesta: Eharris =     -1750.396468
siesta: Etot    =     -1750.396468
siesta: FreeEng =     -1750.396468

siesta: Final energy (eV):
siesta:  Band Struct. =    -484.901136
siesta:       Kinetic =    1227.637342
siesta:       Hartree =    2657.107929
siesta:       Edftu   =       0.000000
siesta:       Eso     =      -0.001873
siesta:    Ext. field =       0.000000
siesta:   Exch.-corr. =    -475.669188
siesta:  Ion-electron =   -6409.442127
siesta:       Ion-ion =    1249.971451
siesta:       Ekinion =       0.000000
siesta:         Total =   -1750.396468
siesta:         Fermi =      -4.425692

siesta: Stress tensor (static) (eV/Ang**3):
siesta:    -0.000133    0.000073   -0.000000
siesta:     0.000073    0.000103    0.000000
siesta:     0.000000    0.000000   -0.000096

siesta: Cell volume =       2118.290604 Ang**3

siesta: Pressure (static):
siesta:                Solid            Molecule  Units
siesta:           0.00000046          0.00000040  Ry/Bohr**3
siesta:           0.00004180          0.00003718  eV/Ang**3
siesta:           0.06697141          0.05956673  kBar
(Free)E+ p_basis*V_orbitals  =       -1741.535726
(Free)Eharris+ p_basis*V_orbitals  =       -1741.535726
     spin moment: S , {S} =    0.00000   0.00000  -0.00000   0.00000

siesta: Electric dipole (a.u.)  =   -3.086431    0.290651    0.000000
siesta: Electric dipole (Debye) =   -7.844929    0.738761    0.000000

cite: Please see "Cytosine.bib" for an exhaustive BiBTeX file.
cite: Please clearly indicate Siesta version in published work: v4.1.5-1-g384057250
cite: This calculation has made use of the following articles
cite: which are encouraged to be cited in a published work.
        Primary SIESTA paper
          DOI: www.doi.org/10.1088/0953-8984/14/11/302
        Spin-orbit coupling (on-site approximation)
          DOI: www.doi.org/10.1088/0953-8984/19/19/489001

WARNING: alloc-realloc-dealloc name mismatch
         Name: atomlist isa
         Node:     0
         Subsequent mismatches will not be reported
>> End of run:  15-OCT-2023   9:26:50
Job completed