>> Start of run:  14-OCT-2023  13:24:35

reinit: Reading from standard input
reinit: Dumped input in INPUT_TMP.87292
************************** Dump of input data file ****************************
# mpirun -np 4 siesta-4.1.5 < Guanine.fdf > Guanine.out
SystemLabel      Guanine
NumberOfAtoms    16
NumberOfSpecies  4
%block ChemicalSpeciesLabel
    1    1  H
    2    7  N
    3    14 Si
    4    8  O
%endblock ChemicalSpeciesLabel
# This overrides Defaults.fdf configuration
MD.TypeOfRun                Verlet # CG, Verlet
MD.Steps                    300
MD.Quench                   True
AtomicCoordinatesFormat NotScaledCartesianAng
%block AtomicCoordinatesAndAtomicSpecies
4.388428 -6.123140 0.000000 1
3.389779 -5.838137 0.000000 2
2.206662 -6.693717 0.000000 3
2.258316 -7.799443 0.000000 1
1.017366 -5.956786 0.000000 2
1.517429 -4.535749 0.000000 3
0.734114 -3.341854 0.000000 3
-0.484388 -3.242578 0.000000 4
1.550363 -2.092742 0.000000 2
0.968106 -1.138715 0.000000 1
2.973749 -2.098375 0.000000 3
3.598911 -0.778318 0.000000 2
2.967614 0.091034 0.000000 1
4.582890 -0.781815 0.000000 1
3.784563 -3.287467 0.000000 2
2.900933 -4.444813 0.000000 3
%endblock AtomicCoordinatesAndAtomicSpecies
# Unit Cell
LatticeConstant 1.0 Ang
%block LatticeVectors
    16.818328    0.000000    0.000000
    0.000000   14.230200    0.000000
    0.000000    0.000000   10.224979
%endblock LatticeVectors
%include ../../../../Defaults.fdf
************************** End of input data file *****************************

reinit: -----------------------------------------------------------------------
reinit: System Name:
reinit: -----------------------------------------------------------------------
reinit: System Label: Guanine
reinit: -----------------------------------------------------------------------

initatom: Reading input for the pseudopotentials and atomic orbitals ----------
Species number:   1 Atomic number:    1 Label: H
Species number:   2 Atomic number:    7 Label: N
Species number:   3 Atomic number:   14 Label: Si
Species number:   4 Atomic number:    8 Label: O

Ground state valence configuration:   1s01
Reading pseudopotential information in formatted form from H.psf

Pseudopotential generated from a relativistic atomic calculation

Valence configuration for pseudopotential generation:
1s( 1.00) rc: 0.01
2p( 0.00) rc: 0.60
3d( 0.00) rc: 1.99
4f( 0.00) rc: 2.49
Ground state valence configuration:   2s02  2p03
Reading pseudopotential information in formatted form from N.psf

[...]

Valence configuration for pseudopotential generation:
3s( 2.00) rc: 1.67
3p( 2.00) rc: 2.04
3d( 0.00) rc: 2.89
4f( 0.00) rc: 2.49
Ground state valence configuration:   2s02  2p04
Reading pseudopotential information in formatted form from O.psf

Pseudopotential generated from a relativistic atomic calculation

Valence configuration for pseudopotential generation:
2s( 2.00) rc: 0.45
2p( 4.00) rc: 0.92
3d( 0.00) rc: 2.24
4f( 0.00) rc: 0.25
For H, standard SIESTA heuristics set lmxkb to 2
 (one more than the basis l, including polarization orbitals).
Use PS.lmax or PS.KBprojectors blocks to override.
For N, standard SIESTA heuristics set lmxkb to 3
 (one more than the basis l, including polarization orbitals).
Use PS.lmax or PS.KBprojectors blocks to override.
For Si, standard SIESTA heuristics set lmxkb to 3
 (one more than the basis l, including polarization orbitals).
Use PS.lmax or PS.KBprojectors blocks to override.
For O, standard SIESTA heuristics set lmxkb to 3
 (one more than the basis l, including polarization orbitals).
Use PS.lmax or PS.KBprojectors blocks to override.

<basis_specs>
H                    Z=   1    Mass=  1.0100        Charge= 0.17977+309
Lmxo=0 Lmxkb= 2    BasisType=split      Semic=F
L=0  Nsemic=0  Cnfigmx=1
          i=1  nzeta=2  polorb=1  (1s)
            splnorm:   0.62000
               vcte:    0.0000
               rinn:    0.0000
               qcoe:    0.0000
               qyuk:    0.0000
               qwid:   0.10000E-01
                rcs:    0.0000      0.0000
            lambdas:    1.0000      1.0000
L=0  Nkbl=1  erefs: 0.17977+309
L=1  Nkbl=1  erefs: 0.17977+309
L=2  Nkbl=1  erefs: 0.17977+309
</basis_specs>

atom: Called for H                     (Z =   1)

read_vps: Pseudopotential generation method:
read_vps: ATM4.2.7  Troullier-Martins
Valence charge for ps generation:    1.00000

xc_check: Exchange-correlation functional:
xc_check: GGA Perdew, Burke & Ernzerhof 1996
V l=0 = -2*Zval/r beyond r=  0.0098
V l=1 = -2*Zval/r beyond r=  0.5817
V l=2 = -2*Zval/r beyond r=  1.9372
All V_l potentials equal beyond r=  1.9372
This should be close to max(r_c) in ps generation
All pots = -2*Zval/r beyond r=  1.9372

VLOCAL1: 99.0% of the norm of Vloc inside     11.567 Ry
VLOCAL1: 99.9% of the norm of Vloc inside     26.362 Ry
atom: Maximum radius for 4*pi*r*r*local-pseudopot. charge    2.25106
atom: Maximum radius for r*vlocal+2*Zval:    1.91306
GHOST: No ghost state for L =  0
GHOST: No ghost state for L =  1
GHOST: No ghost state for L =  2

KBgen: Kleinman-Bylander projectors:
   l= 0   rc=  2.036604   el= -0.477180   Ekb= -6.081590   kbcos= -0.277285
   l= 1   rc=  2.195416   el=  0.001076   Ekb= -0.926943   kbcos= -0.034643
   l= 2   rc=  2.251056   el=  0.002010   Ekb= -0.130941   kbcos= -0.009788

KBgen: Total number of Kleinman-Bylander projectors:    9
atom: -------------------------------------------------------------------------

atom: SANKEY-TYPE ORBITALS:
atom: Selected multiple-zeta basis: split

SPLIT: Orbitals with angular momentum L= 0

SPLIT: Basis orbitals for state 1s

SPLIT: PAO cut-off radius determined from an
SPLIT: energy shift=  0.002000 Ry

   izeta = 1
                 lambda =    1.000000
                     rc =    6.518340
                 energy =   -0.475305
                kinetic =    0.912139
    potential(screened) =   -1.387444
       potential(ionic) =   -1.907295

   izeta = 2
                 rmatch =    2.141150
              splitnorm =    0.620000
                 energy =    0.566467
                kinetic =    3.772856
    potential(screened) =   -3.206389
       potential(ionic) =   -3.759093

POLgen: Perturbative polarization orbital with L=  1

POLgen: Polarization orbital for state 1s

   izeta = 1
                     rc =    6.518340
                 energy =    0.533861
                kinetic =    1.121086
    potential(screened) =   -0.587225
       potential(ionic) =   -1.053027
atom: Total number of Sankey-type orbitals:  5

atm_pop: Valence configuration (for local Pseudopot. screening):
 1s( 1.00)
Vna: chval, zval:    1.00000   1.00000

Vna:  Cut-off radius for the neutral-atom potential:   6.518340

atom: _________________________________________________________________________

<basis_specs>
N                    Z=   7    Mass=  14.010        Charge= 0.17977+309
Lmxo=1 Lmxkb= 3    BasisType=split      Semic=F
L=0  Nsemic=0  Cnfigmx=2
          i=1  nzeta=2  polorb=0  (2s)
            splnorm:   0.28000
               vcte:    0.0000
               rinn:    0.0000
               qcoe:    0.0000
               qyuk:    0.0000
               qwid:   0.10000E-01
                rcs:    0.0000      0.0000
            lambdas:    1.0000      1.0000
L=1  Nsemic=0  Cnfigmx=2
          i=1  nzeta=2  polorb=1  (2p)
            splnorm:   0.28000
               vcte:    0.0000
               rinn:    0.0000
               qcoe:    0.0000
               qyuk:    0.0000
               qwid:   0.10000E-01
                rcs:    0.0000      0.0000
            lambdas:    1.0000      1.0000
L=0  Nkbl=1  erefs: 0.17977+309
L=1  Nkbl=1  erefs: 0.17977+309
L=2  Nkbl=1  erefs: 0.17977+309
L=3  Nkbl=1  erefs: 0.17977+309
</basis_specs>

[...]

KBgen: Kleinman-Bylander projectors:
   l= 0   rc=  3.417763   el= -1.365098   Ekb= -4.433130   kbcos= -0.707855
   l= 1   rc=  3.375302   el= -0.521201   Ekb=-13.264039   kbcos= -0.535594
   l= 2   rc=  3.872880   el=  0.001991   Ekb= -0.641094   kbcos= -0.062456
   l= 3   rc=  3.970931   el=  0.003093   Ekb= -0.474517   kbcos= -0.018236

[...]

SPLIT: Basis orbitals for state 2p

[...]

POLgen: Polarization orbital for state 2p

[...]

atm_pop: Valence configuration (for local Pseudopot. screening):
 2s( 2.00)
 2p( 3.00)
Vna: chval, zval:    5.00000   5.00000

[...]

KBgen: Kleinman-Bylander projectors:
   l= 0   rc=  3.075247   el= -0.794092   Ekb=  5.879390   kbcos=  0.167461
   l= 1   rc=  3.153101   el= -0.300068   Ekb=  2.642817   kbcos=  0.058301
   l= 2   rc=  3.273594   el=  0.001958   Ekb= -1.185135   kbcos= -0.104411
   l= 3   rc=  3.232927   el=  0.003046   Ekb= -0.497174   kbcos= -0.015889

[...]

<basis_specs>
O                    Z=   8    Mass=  16.000        Charge= 0.17977+309
Lmxo=1 Lmxkb= 3    BasisType=split      Semic=F
L=0  Nsemic=0  Cnfigmx=2
          i=1  nzeta=2  polorb=0  (2s)
            splnorm:   0.28000
               vcte:    0.0000
               rinn:    0.0000
               qcoe:    0.0000
               qyuk:    0.0000
               qwid:   0.10000E-01
                rcs:    0.0000      0.0000
            lambdas:    1.0000      1.0000
L=1  Nsemic=0  Cnfigmx=2
          i=1  nzeta=2  polorb=1  (2p)
            splnorm:   0.28000
               vcte:    0.0000
               rinn:    0.0000
               qcoe:    0.0000
               qyuk:    0.0000
               qwid:   0.10000E-01
                rcs:    0.0000      0.0000
            lambdas:    1.0000      1.0000
L=0  Nkbl=1  erefs: 0.17977+309
L=1  Nkbl=1  erefs: 0.17977+309
L=2  Nkbl=1  erefs: 0.17977+309
L=3  Nkbl=1  erefs: 0.17977+309
</basis_specs>

atom: Called for O                     (Z =   8)

read_vps: Pseudopotential generation method:
read_vps: ATM4.2.7  Troullier-Martins
Valence charge for ps generation:    6.00000

xc_check: Exchange-correlation functional:
xc_check: GGA Perdew, Burke & Ernzerhof 1996
V l=0 = -2*Zval/r beyond r=  1.1000
V l=1 = -2*Zval/r beyond r=  1.1000
V l=2 = -2*Zval/r beyond r=  2.2154
V l=3 = -2*Zval/r beyond r=  1.1000
All V_l potentials equal beyond r=  2.2154
This should be close to max(r_c) in ps generation
All pots = -2*Zval/r beyond r=  2.2154

VLOCAL1: 99.0% of the norm of Vloc inside      8.845 Ry
VLOCAL1: 99.9% of the norm of Vloc inside     20.157 Ry
atom: Maximum radius for 4*pi*r*r*local-pseudopot. charge    2.67231
atom: Maximum radius for r*vlocal+2*Zval:    2.32897
GHOST: No ghost state for L =  0
GHOST: No ghost state for L =  1
GHOST: No ghost state for L =  2
GHOST: No ghost state for L =  3

KBgen: Kleinman-Bylander projectors:
   l= 0   rc=  2.243238   el= -1.759686   Ekb=**********   kbcos= -0.171774
   l= 1   rc=  2.328968   el= -0.663873   Ekb=-14.506792   kbcos= -0.519897
   l= 2   rc=  2.573941   el=  0.002031   Ekb= -1.137373   kbcos= -0.019581
   l= 3   rc=  2.606321   el=  0.003153   Ekb= -1.013546   kbcos= -0.003122

KBgen: Total number of Kleinman-Bylander projectors:   16
atom: -------------------------------------------------------------------------

atom: SANKEY-TYPE ORBITALS:
atom: Selected multiple-zeta basis: split

[...]

SPLIT: Basis orbitals for state 2s

[...]

SPLIT: Orbitals with angular momentum L= 1

[...]
           7       1:   96    1:   20   47:   53
           8       1:   96    1:   20   54:   60
           9       1:   96   21:   40    1:    8
          10       1:   96   21:   40    9:   16
          11       1:   96   21:   40   17:   24
          12       1:   96   21:   40   25:   32
          13       1:   96   21:   40   33:   39
          14       1:   96   21:   40   40:   46
          15       1:   96   21:   40   47:   53
          16       1:   96   21:   40   54:   60
          17       1:   96   41:   60    1:    8
          18       1:   96   41:   60    9:   16
          19       1:   96   41:   60   17:   24
          20       1:   96   41:   60   25:   32
          21       1:   96   41:   60   33:   39
          22       1:   96   41:   60   40:   46
          23       1:   96   41:   60   47:   53
          24       1:   96   41:   60   54:   60
          25       1:   96   61:   80    1:    8
          26       1:   96   61:   80    9:   16
          27       1:   96   61:   80   17:   24
          28       1:   96   61:   80   25:   32
          29       1:   96   61:   80   33:   39
          30       1:   96   61:   80   40:   46
          31       1:   96   61:   80   47:   53
          32       1:   96   61:   80   54:   60

InitMesh: MESH =   192 x   160 x   120 =     3686400
InitMesh: (bp) =    96 x    80 x    60 =      460800
InitMesh: Mesh cutoff (required, used) =   340.000   349.397 Ry
ExtMesh (bp) on 0 =   200 x   124 x   116 =     2876800
New grid distribution:   2
           1       1:   11    1:   44    1:   20
           2      19:   26   46:   56   19:   60
           3      11:   18   68:   80    1:   20
           4      27:   96    1:   46   19:   60
           5       1:   11    1:   44   21:   60
           6      19:   27    1:   44    1:   18
           7      11:   18   56:   66   21:   60
           8       1:   10   56:   65    1:   20
           9      28:   96    1:   46    1:   18
          10      12:   18   45:   55   21:   60
          11      19:   27   45:   56    1:   18
          12      12:   18    1:   44   21:   60
          13      28:   96   67:   80    1:   18
          14      12:   18    1:   44    1:   20
          15       1:   10   66:   80    1:   20
          16      11:   18   56:   67    1:   20
          17      28:   96   47:   56    1:   18
          18       1:   11   45:   55    1:   20
          19       1:   10   56:   65   21:   60
          20      27:   96   47:   56   19:   60
          21      19:   26    1:   45   19:   60
          22      19:   27   68:   80   19:   60
          23       1:   11   45:   55   21:   60
          24      19:   27   57:   67    1:   18
          25      28:   96   57:   66    1:   18
          26      19:   27   68:   80    1:   18
          27      19:   27   57:   67   19:   60
          28      28:   96   67:   80   19:   60
          29      28:   96   57:   66   19:   60
          30       1:   10   66:   80   21:   60
          31      11:   18   67:   80   21:   60
          32      12:   18   45:   55    1:   20
New grid distribution:   3
           1       1:   13    1:   27    1:   28
           2      14:   25    1:   25    1:   28
           3       1:   13   28:   45    1:   28
           4      40:   96    1:   37   23:   60
           5      40:   96   38:   51    1:   22
           6      26:   39    1:   30   23:   60
           7      77:   96   66:   80   37:   60
           8       1:   13   46:   61    1:   28
           9      40:   96    1:   37    1:   22
          10       1:   13   62:   80    1:   28
          11      26:   39   30:   51    1:   22
          12      26:   39   31:   51   23:   60
          13      26:   76   67:   80   37:   60
          14       1:   13    1:   27   29:   60
          15      14:   25   26:   45   29:   60
          16      14:   25   46:   62    1:   28
          17      75:   96   52:   64    1:   36
          18       1:   12   63:   80   29:   60
          19      14:   25   26:   45    1:   28
          20      40:   96   38:   51   23:   60
          21      14:   25    1:   25   29:   60
          22      26:   76   52:   66   37:   60
          23       1:   13   28:   45   29:   60
          24      77:   96   52:   65   37:   60
          25      26:   74   52:   66    1:   36
          26      75:   96   65:   80    1:   36
          27      14:   25   63:   80    1:   28
          28      13:   25   46:   62   29:   60
          29      26:   74   67:   80    1:   36
          30      26:   39    1:   29    1:   22
          31      13:   25   63:   80   29:   60
          32       1:   12   46:   62   29:   60
Setting up quadratic distribution...
ExtMesh (bp) on 0 =   115 x   148 x   128 =     2178560
PhiOnMesh: Number of (b)points on node 0 =                 9680
PhiOnMesh: nlist on node 0 =               215748

        iscf     Eharris(eV)        E_KS(eV)     FreeEng(eV)     dDmax    Ef(eV) dHmax(eV)
   scf:    1    -2395.895152    -2395.887665    -2395.887665  0.001393 -3.878435  0.022463
     spin moment: S , {S} =    0.00000  -0.00000  -0.00000  -0.00000
   scf:    2    -2395.886794    -2395.887419    -2395.887419  0.001425 -3.887283  0.076661
     spin moment: S , {S} =    0.00000  -0.00000  -0.00000  -0.00000
   scf:    3    -2395.887761    -2395.887702    -2395.887702  0.001067 -3.881460  0.002316
     spin moment: S , {S} =    0.00000  -0.00000  -0.00000  -0.00000
   scf:    4    -2395.887703    -2395.887703    -2395.887703  0.000030 -3.881663  0.000938
     spin moment: S , {S} =    0.00000  -0.00000  -0.00000  -0.00000
   scf:    5    -2395.887703    -2395.887703    -2395.887703  0.000018 -3.881787  0.000379
     spin moment: S , {S} =    0.00000  -0.00000  -0.00000  -0.00000
   scf:    6    -2395.887703    -2395.887703    -2395.887703  0.000008 -3.881815  0.000100
     spin moment: S , {S} =    0.00000  -0.00000  -0.00000  -0.00000
   scf:    7    -2395.887703    -2395.887703    -2395.887703  0.000004 -3.881824  0.000058
     spin moment: S , {S} =    0.00000  -0.00000  -0.00000  -0.00000
   scf:    8    -2395.887703    -2395.887703    -2395.887703  0.000002 -3.881829  0.000026
     spin moment: S , {S} =    0.00000  -0.00000  -0.00000  -0.00000
   scf:    9    -2395.887703    -2395.887703    -2395.887703  0.000001 -3.881832  0.000009
     spin moment: S , {S} =    0.00000  -0.00000  -0.00000  -0.00000
   scf:   10    -2395.887703    -2395.887703    -2395.887703  0.000001 -3.881832  0.000004
     spin moment: S , {S} =    0.00000  -0.00000  -0.00000  -0.00000
   scf:   11    -2395.887703    -2395.887703    -2395.887703  0.000000 -3.881832  0.000001
     spin moment: S , {S} =    0.00000  -0.00000  -0.00000  -0.00000

SCF Convergence by DM+H criterion
max |DM_out - DM_in|         :     0.0000002766
max |H_out - H_in|      (eV) :     0.0000008176
SCF cycle converged after 11 iterations

Using DM_out to compute the final energy and forces
No. of atoms with KB's overlaping orbs in proc 0. Max # of overlaps:      16     138

siesta: E_KS(eV) =            -2395.8877
     spin moment: S , {S} =    0.00000  -0.00000  -0.00000  -0.00000

siesta: Atomic forces (eV/Ang):
     1    0.127910    0.013195   -0.037941
     2    0.039301    0.093156   -0.220736
     3    0.222582    0.081876   -0.003476
     4    0.056085   -0.021581   -0.040189
     5    0.031578    0.015722    0.239084
     6    0.136079   -0.259755    0.166982
     7    0.200926   -0.314121    0.191425
     8    0.031492   -0.003210   -0.019770
     9    0.029181   -0.307880   -0.034305
    10   -0.042687   -0.037287    0.004268
    11   -0.003757   -0.091267   -0.034725
    12   -0.031150   -0.025166   -0.007874
    13    0.001327    0.000564    0.000465
    14   -0.003211   -0.004062   -0.000348
    15    0.040282   -0.031745   -0.081197
    16   -0.132638    0.057632    0.293520
   Tot    0.703301   -0.833927    0.415183
   Max    0.314121
   Res    0.122078    sqrt( Sum f_i^2 / 3N )
   Max    0.314121    constrained

Stress tensor Voigt[x,y,z,yz,xz,xy] (kbar):       -2.43        0.44       -0.56        0.14       -0.02        1.27
(Free)E + p*V (eV/cell)    -2394.5886
Target enthalpy (eV/cell)    -2395.8877

siesta: Stress tensor (static) (eV/Ang**3):
        -0.001501    0.000785   -0.000008
         0.000785    0.000321    0.000041
        -0.000008    0.000041   -0.000132

siesta: Pressure (static):          0.70011162  kBar

siesta: Stress tensor (total) (eV/Ang**3):
        -0.001519    0.000791   -0.000011
         0.000791    0.000276    0.000090
        -0.000011    0.000090   -0.000349

siesta: Pressure (total):          0.85052538  kBar

siesta: Temp_ion =     181.587 K

outcoor: Final (unrelaxed) atomic coordinates (Ang):
    4.96951342   -6.82957340   -0.17343121   1       1  H
    4.00901341   -6.40325205   -0.04125004   2       2  N
    2.49751554   -7.42359516   -0.09899907   3       3  Si
    2.72232203   -8.89829940   -0.00418577   1       4  H
    0.96392651   -6.71194524   -0.01397721   2       5  N
    1.31707909   -5.02244331    0.62516790   3       6  Si
    0.42403706   -3.13035809   -0.22448532   3       7  Si
   -1.14163483   -3.19740443   -0.00208233   4       8  O
    1.56371383   -1.63904545   -0.07322752   2       9  N
    1.13068289   -0.67264207    0.00168258   1      10  H
    3.32877379   -1.77429730   -0.00665984   3      11  Si
    4.05324763   -0.19064027    0.06598920   2      12  N
    3.50564223    0.70888541    0.00018250   1      13  H
    5.09666416   -0.08175574    0.08630282   1      14  H
    4.35514099   -3.14253443    0.04190792   2      15  N
    3.42290527   -4.64017762   -0.10035386   3      16  Si

siesta: Eigenvalues (eV):
ik =     1
  -22.1905  -22.1905  -21.9212  -21.9212  -21.2992  -21.2992  -21.1470  -21.1470  -19.9785  -19.9785
  -19.3888  -19.3888  -13.9983  -13.9983  -13.4485  -13.4485  -13.2097  -13.2097  -13.1169  -13.1169
  -12.7004  -12.7004  -11.5924  -11.5924  -10.9452  -10.9452  -10.8506  -10.8506   -9.4619   -9.4619
   -8.8931   -8.8931   -8.8634   -8.8634   -8.7042   -8.7042   -8.2660   -8.2660   -7.7469   -7.7469
   -7.5793   -7.5793   -7.3273   -7.3273   -7.1110   -7.1110   -6.7020   -6.7020   -6.4282   -6.4282
   -6.2173   -6.2173   -5.4630   -5.4630   -4.9073   -4.9073   -2.8396   -2.8396   -2.7420   -2.7420
   -2.3215   -2.3215   -2.2133   -2.2133   -1.6692   -1.6692   -1.1831   -1.1831   -0.8998   -0.8998
   -0.6896   -0.6896   -0.3473   -0.3473    0.1410    0.1410    0.4747    0.4747    0.8562    0.8562
    1.0068    1.0068    1.4469    1.4469    1.5387    1.5387    2.0673    2.0673    2.4442    2.4442
    2.6093    2.6093    2.8593    2.8593    3.2008    3.2008    3.2789    3.2789    3.5733    3.5733
    3.9715    3.9715    4.1046    4.1046    4.5852    4.5852    4.6614    4.6614    4.8760    4.8760
    5.1396    5.1396    5.4294    5.4294    5.6181    5.6181    5.7241    5.7241    6.1663    6.1663
    6.7379    6.7379    6.8084    6.8084    6.9506    6.9506    7.0826    7.0826    7.4553    7.4553
    8.0309    8.0309    8.2917    8.2917    8.4041    8.4041    8.5178    8.5178    8.8816    8.8816
    9.1481    9.1481    9.3693    9.3693    9.6308    9.6308    9.9413    9.9413   10.2735   10.2735
   10.7353   10.7353   10.9587   10.9587   11.1388   11.1388   11.4431   11.4431   11.6393   11.6393
   12.0258   12.0258   12.2042   12.2042   12.5940   12.5940   13.6700   13.6700   13.9777   13.9777
   15.0045   15.0045   15.5011   15.5011   15.8997   15.8997   16.2748   16.2748   16.8519   16.8519
   17.5116   17.5116   17.9536   17.9536   18.7271   18.7271   19.0069   19.0069   20.3430   20.3430
   21.0395   21.0395   21.3110   21.3110   22.0391   22.0391   22.4882   22.4882   23.3727   23.3727
   23.9537   23.9537   24.9558   24.9558   26.7623   26.7623   27.7245   27.7245   28.9065   28.9065
   29.5477   29.5477   30.0208   30.0208   30.2209   30.2209   31.1407   31.1407   31.5749   31.5749
   31.8804   31.8804   32.3240   32.3240   33.4074   33.4074   34.4946   34.4946   34.9841   34.9841
   36.0150   36.0150   36.1944   36.1944   36.3950   36.3950   36.9973   36.9973   37.3155   37.3155
   37.5970   37.5970   38.9598   38.9598   39.0957   39.0957   39.4607   39.4607   40.4503   40.4503
   40.7517   40.7517   41.3971   41.3971   42.5992   42.5992   42.7168   42.7168   43.0657   43.0657
   43.7496   43.7496   44.1688   44.1688   45.1910   45.1910   45.4305   45.4305   46.1306   46.1306
   47.7132   47.7132   47.8118   47.8118   48.9941   48.9941   49.1959   49.1959   50.2266   50.2266
   50.9617   50.9617   51.5115   51.5115   52.5800   52.5800   53.9975   53.9975   54.3848   54.3848
   55.3230   55.3230   56.6017   56.6017   57.0161   57.0161   58.3247   58.3247   59.3769   59.3769
   59.7824   59.7824   60.9914   60.9914   61.0683   61.0683   62.6337   62.6337   64.7867   64.7867
   67.0439   67.0439   68.7143   68.7143   71.0480   71.0480   72.2235   72.2235   90.0971   90.0971
   92.1479   92.1479   94.7073   94.7073   98.3036   98.3036  101.0866  101.0866  108.8637  108.8637
  121.8680  121.8680  129.2749  129.2749  140.3590  140.3590
siesta: Fermi energy =      -3.881832 eV

siesta: Program's energy decomposition (eV):
siesta: Ebs     =      -658.916784
siesta: Eions   =      2040.955082
siesta: Ena     =       222.086745
siesta: Ekin    =      1677.370287
siesta: Enl     =     -1647.495457
siesta: Eso     =        -0.002243
siesta: Edftu   =         0.000000
siesta: DEna    =        29.501870
siesta: DUscf   =         8.074017
siesta: DUext   =         0.000000
siesta: Exc     =      -644.467840
siesta: eta*DQ  =         0.000000
siesta: Emadel  =         0.000000
siesta: Emeta   =         0.000000
siesta: Emolmec =         0.000000
siesta: Ekinion =         0.352065
siesta: Eharris =     -2395.535638
siesta: Etot    =     -2395.535638
siesta: FreeEng =     -2395.535638

siesta: Final energy (eV):
siesta:  Band Struct. =    -658.916784
siesta:       Kinetic =    1677.370287
siesta:       Hartree =    3978.579558
siesta:       Edftu   =       0.000000
siesta:       Eso     =      -0.002243
siesta:    Ext. field =       0.000000
siesta:   Exch.-corr. =    -644.467840
siesta:  Ion-electron =   -9456.717688
siesta:       Ion-ion =    2049.350222
siesta:       Ekinion =       0.352065
siesta:         Total =   -2395.535638
siesta:         Fermi =      -3.881832

siesta: Atomic forces (eV/Ang):
siesta:      1    0.127910    0.013195   -0.037941
siesta:      2    0.039301    0.093156   -0.220736
siesta:      3    0.222582    0.081876   -0.003476
siesta:      4    0.056085   -0.021581   -0.040189
siesta:      5    0.031578    0.015722    0.239084
siesta:      6    0.136079   -0.259755    0.166982
siesta:      7    0.200926   -0.314121    0.191425
siesta:      8    0.031492   -0.003210   -0.019770
siesta:      9    0.029181   -0.307880   -0.034305
siesta:     10   -0.042687   -0.037287    0.004268
siesta:     11   -0.003757   -0.091267   -0.034725
siesta:     12   -0.031150   -0.025166   -0.007874
siesta:     13    0.001327    0.000564    0.000465
siesta:     14   -0.003211   -0.004062   -0.000348
siesta:     15    0.040282   -0.031745   -0.081197
siesta:     16   -0.132638    0.057632    0.293520
siesta: ----------------------------------------
siesta:    Tot    0.703301   -0.833927    0.415183

siesta: Stress tensor (static) (eV/Ang**3):
siesta:    -0.001501    0.000785   -0.000008
siesta:     0.000785    0.000321    0.000041
siesta:    -0.000008    0.000041   -0.000132

siesta: Cell volume =       2447.125524 Ang**3

siesta: Pressure (static):
siesta:                Solid            Molecule  Units
siesta:           0.00000476          0.00000764  Ry/Bohr**3
siesta:           0.00043697          0.00070165  eV/Ang**3
siesta:           0.70011162          1.12418409  kBar
(Free)E+ p_basis*V_orbitals  =       -2384.898027
(Free)Eharris+ p_basis*V_orbitals  =       -2384.898027
     spin moment: S , {S} =    0.00000  -0.00000  -0.00000  -0.00000

siesta: Electric dipole (a.u.)  =    3.169116    0.000000   -0.287464
siesta: Electric dipole (Debye) =    8.055094    0.000000   -0.730661

cite: Please see "Guanine.bib" for an exhaustive BiBTeX file.
cite: Please clearly indicate Siesta version in published work: v4.1.5-1-g384057250
cite: This calculation has made use of the following articles
cite: which are encouraged to be cited in a published work.
        Primary SIESTA paper
          DOI: www.doi.org/10.1088/0953-8984/14/11/302
        Spin-orbit coupling (on-site approximation)
          DOI: www.doi.org/10.1088/0953-8984/19/19/489001

WARNING: alloc-realloc-dealloc name mismatch
         Name: atomlist isa
         Node:     0
         Subsequent mismatches will not be reported
>> End of run:  14-OCT-2023  14:43:54
Job completed