>> Start of run:  15-OCT-2023   9:13:02

reinit: Reading from standard input
reinit: Dumped input in INPUT_TMP.84561
************************** Dump of input data file ****************************
# mpirun -np 4 siesta-4.1.5 < Adenine.fdf > Adenine.out
SystemLabel      Adenine
NumberOfAtoms    15
NumberOfSpecies  3
%block ChemicalSpeciesLabel
    1    1  H
    2    7  N
    3   14  Si
%endblock ChemicalSpeciesLabel
# This overrides Defaults.fdf configuration
MD.TypeOfRun                CG # CG, Verlet
MD.Steps                    0
AtomicCoordinatesFormat NotScaledCartesianAng
%block AtomicCoordinatesAndAtomicSpecies
    2.21762232   -5.11279452    0.00000000   1       1  H
    1.29501137   -4.59896583    0.00000000   2       2  N
   -0.29904047   -5.42682372    0.00000000   3       3  Si
   -0.24674975   -6.93013012    0.00000000   1       4  H
   -1.72423401   -4.48368219    0.00000000   2       5  N
   -1.16006198   -2.76542566    0.00000000   3       6  Si
   -1.47852890   -0.56637991    0.00000000   3       7  Si
   -3.00339962    0.30830853    0.00000000   2       8  N
   -3.03826294    1.36179510    0.00000000   1       9  H
   -3.94024356   -0.17255215    0.00000000   1      10  H
   -0.07927414    0.45677789    0.00000000   2      11  N
    1.57094203   -0.02429720    0.00000000   3      12  Si
    2.54369079    1.12474014    0.00000000   1      13  H
    2.32454704   -1.59358938    0.00000000   2      14  N
    1.05498597   -2.78042589    0.00000000   3      15  Si
%endblock AtomicCoordinatesAndAtomicSpecies
# Unit Cell
LatticeConstant 1.0 Ang
%block LatticeVectors
    14.779133    0.000000    0.000000
    0.000000   16.638097    0.000000
    0.000000    0.000000    9.854683
%endblock LatticeVectors
%include ../../../Defaults.fdf
************************** End of input data file *****************************

reinit: -----------------------------------------------------------------------
reinit: System Name:
reinit: -----------------------------------------------------------------------
reinit: System Label: Adenine
reinit: -----------------------------------------------------------------------

initatom: Reading input for the pseudopotentials and atomic orbitals ----------
Species number:   1 Atomic number:    1 Label: H
Species number:   2 Atomic number:    7 Label: N
Species number:   3 Atomic number:   14 Label: Si

Ground state valence configuration:   1s01
Reading pseudopotential information in formatted form from H.psf

Pseudopotential generated from a relativistic atomic calculation

Valence configuration for pseudopotential generation:
1s( 1.00) rc: 0.01
2p( 0.00) rc: 0.60
3d( 0.00) rc: 1.99
4f( 0.00) rc: 2.49
Ground state valence configuration:   2s02  2p03
Reading pseudopotential information in formatted form from N.psf

[...]

Valence configuration for pseudopotential generation:
2s( 2.00) rc: 0.94
2p( 3.00) rc: 0.59
3d( 0.00) rc: 3.46
4f( 0.00) rc: 2.47
Ground state valence configuration:   3s02  3p02
Reading pseudopotential information in formatted form from Si.psf

Pseudopotential generated from a relativistic atomic calculation

Valence configuration for pseudopotential generation:
3s( 2.00) rc: 1.67
3p( 2.00) rc: 2.04
3d( 0.00) rc: 2.89
4f( 0.00) rc: 2.49
For H, standard SIESTA heuristics set lmxkb to 2
 (one more than the basis l, including polarization orbitals).
Use PS.lmax or PS.KBprojectors blocks to override.
For N, standard SIESTA heuristics set lmxkb to 3
 (one more than the basis l, including polarization orbitals).
Use PS.lmax or PS.KBprojectors blocks to override.
For Si, standard SIESTA heuristics set lmxkb to 3
 (one more than the basis l, including polarization orbitals).
Use PS.lmax or PS.KBprojectors blocks to override.

<basis_specs>
H                    Z=   1    Mass=  1.0100        Charge= 0.17977+309
Lmxo=0 Lmxkb= 2    BasisType=split      Semic=F
L=0  Nsemic=0  Cnfigmx=1
          i=1  nzeta=2  polorb=1  (1s)
            splnorm:   0.62000
               vcte:    0.0000
               rinn:    0.0000
               qcoe:    0.0000
               qyuk:    0.0000
               qwid:   0.10000E-01
                rcs:    0.0000      0.0000
            lambdas:    1.0000      1.0000
L=0  Nkbl=1  erefs: 0.17977+309
L=1  Nkbl=1  erefs: 0.17977+309
L=2  Nkbl=1  erefs: 0.17977+309
</basis_specs>

atom: Called for H                     (Z =   1)

read_vps: Pseudopotential generation method:
read_vps: ATM4.2.7  Troullier-Martins
Valence charge for ps generation:    1.00000

xc_check: Exchange-correlation functional:
xc_check: GGA Perdew, Burke & Ernzerhof 1996
V l=0 = -2*Zval/r beyond r=  0.0098
V l=1 = -2*Zval/r beyond r=  0.5817
V l=2 = -2*Zval/r beyond r=  1.9372
All V_l potentials equal beyond r=  1.9372
This should be close to max(r_c) in ps generation
All pots = -2*Zval/r beyond r=  1.9372

VLOCAL1: 99.0% of the norm of Vloc inside     11.567 Ry
VLOCAL1: 99.9% of the norm of Vloc inside     26.362 Ry
atom: Maximum radius for 4*pi*r*r*local-pseudopot. charge    2.25106
atom: Maximum radius for r*vlocal+2*Zval:    1.91306
GHOST: No ghost state for L =  0
GHOST: No ghost state for L =  1
GHOST: No ghost state for L =  2

KBgen: Kleinman-Bylander projectors:
   l= 0   rc=  2.036604   el= -0.477180   Ekb= -6.081590   kbcos= -0.277285
   l= 1   rc=  2.195416   el=  0.001076   Ekb= -0.926943   kbcos= -0.034643
   l= 2   rc=  2.251056   el=  0.002010   Ekb= -0.130941   kbcos= -0.009788

KBgen: Total number of Kleinman-Bylander projectors:    9
atom: -------------------------------------------------------------------------

atom: SANKEY-TYPE ORBITALS:
atom: Selected multiple-zeta basis: split

SPLIT: Orbitals with angular momentum L= 0

SPLIT: Basis orbitals for state 1s

SPLIT: PAO cut-off radius determined from an
SPLIT: energy shift=  0.002000 Ry

   izeta = 1
                 lambda =    1.000000
                     rc =    6.518340
                 energy =   -0.475305
                kinetic =    0.912139
    potential(screened) =   -1.387444
       potential(ionic) =   -1.907295

   izeta = 2
                 rmatch =    2.141150
              splitnorm =    0.620000
                 energy =    0.566467
                kinetic =    3.772856
    potential(screened) =   -3.206389
       potential(ionic) =   -3.759093

POLgen: Perturbative polarization orbital with L=  1

POLgen: Polarization orbital for state 1s

   izeta = 1
                     rc =    6.518340
                 energy =    0.533861
                kinetic =    1.121086
    potential(screened) =   -0.587225
       potential(ionic) =   -1.053027
atom: Total number of Sankey-type orbitals:  5

atm_pop: Valence configuration (for local Pseudopot. screening):
 1s( 1.00)
Vna: chval, zval:    1.00000   1.00000

Vna:  Cut-off radius for the neutral-atom potential:   6.518340

atom: _________________________________________________________________________

<basis_specs>
N                    Z=   7    Mass=  14.010        Charge= 0.17977+309
Lmxo=1 Lmxkb= 3    BasisType=split      Semic=F
L=0  Nsemic=0  Cnfigmx=2
          i=1  nzeta=2  polorb=0  (2s)
            splnorm:   0.28000
               vcte:    0.0000
               rinn:    0.0000
               qcoe:    0.0000
               qyuk:    0.0000
               qwid:   0.10000E-01
                rcs:    0.0000      0.0000
            lambdas:    1.0000      1.0000
L=1  Nsemic=0  Cnfigmx=2
          i=1  nzeta=2  polorb=1  (2p)
            splnorm:   0.28000
               vcte:    0.0000
               rinn:    0.0000
               qcoe:    0.0000
               qyuk:    0.0000
               qwid:   0.10000E-01
                rcs:    0.0000      0.0000
            lambdas:    1.0000      1.0000
L=0  Nkbl=1  erefs: 0.17977+309
L=1  Nkbl=1  erefs: 0.17977+309
L=2  Nkbl=1  erefs: 0.17977+309
L=3  Nkbl=1  erefs: 0.17977+309
</basis_specs>

[...]

KBgen: Kleinman-Bylander projectors:
   l= 0   rc=  3.417763   el= -1.365098   Ekb= -4.433130   kbcos= -0.707855
   l= 1   rc=  3.375302   el= -0.521201   Ekb=-13.264039   kbcos= -0.535594
   l= 2   rc=  3.872880   el=  0.001991   Ekb= -0.641094   kbcos= -0.062456
   l= 3   rc=  3.970931   el=  0.003093   Ekb= -0.474517   kbcos= -0.018236

[...]

SPLIT: Basis orbitals for state 2p

[...]

POLgen: Polarization orbital for state 2p

[...]

atm_pop: Valence configuration (for local Pseudopot. screening):
 2s( 2.00)
 2p( 3.00)
Vna: chval, zval:    5.00000   5.00000

[...]

<basis_specs>
Si                   Z=  14    Mass=  28.090        Charge= 0.17977+309
Lmxo=1 Lmxkb= 3    BasisType=split      Semic=F
L=0  Nsemic=0  Cnfigmx=3
          i=1  nzeta=2  polorb=0  (3s)
            splnorm:   0.28000
               vcte:    0.0000
               rinn:    0.0000
               qcoe:    0.0000
               qyuk:    0.0000
               qwid:   0.10000E-01
                rcs:    0.0000      0.0000
            lambdas:    1.0000      1.0000
L=1  Nsemic=0  Cnfigmx=3
          i=1  nzeta=2  polorb=1  (3p)
            splnorm:   0.28000
               vcte:    0.0000
               rinn:    0.0000
               qcoe:    0.0000
               qyuk:    0.0000
               qwid:   0.10000E-01
                rcs:    0.0000      0.0000
            lambdas:    1.0000      1.0000
L=0  Nkbl=1  erefs: 0.17977+309
L=1  Nkbl=1  erefs: 0.17977+309
L=2  Nkbl=1  erefs: 0.17977+309
L=3  Nkbl=1  erefs: 0.17977+309
</basis_specs>

atom: Called for Si                    (Z =  14)

read_vps: Pseudopotential generation method:
read_vps: ATM4.2.7  Troullier-Martins
Valence charge for ps generation:    4.00000

xc_check: Exchange-correlation functional:
xc_check: GGA Perdew, Burke & Ernzerhof 1996
V l=0 = -2*Zval/r beyond r=  2.7826
V l=1 = -2*Zval/r beyond r=  2.7826
V l=2 = -2*Zval/r beyond r=  2.9253
V l=3 = -2*Zval/r beyond r=  2.7826
All V_l potentials equal beyond r=  2.8530
This should be close to max(r_c) in ps generation
All pots = -2*Zval/r beyond r=  2.9253

VLOCAL1: 99.0% of the norm of Vloc inside      5.333 Ry
VLOCAL1: 99.9% of the norm of Vloc inside     12.154 Ry
atom: Maximum radius for 4*pi*r*r*local-pseudopot. charge    3.39869
atom: Maximum radius for r*vlocal+2*Zval:    2.96205
GHOST: No ghost state for L =  0
GHOST: No ghost state for L =  1
GHOST: No ghost state for L =  2
GHOST: No ghost state for L =  3

KBgen: Kleinman-Bylander projectors:
   l= 0   rc=  3.075247   el= -0.794092   Ekb=  5.879390   kbcos=  0.167461
   l= 1   rc=  3.153101   el= -0.300068   Ekb=  2.642817   kbcos=  0.058301
   l= 2   rc=  3.273594   el=  0.001958   Ekb= -1.185135   kbcos= -0.104411
   l= 3   rc=  3.232927   el=  0.003046   Ekb= -0.497174   kbcos= -0.015889

KBgen: Total number of Kleinman-Bylander projectors:   16
atom: -------------------------------------------------------------------------

atom: SANKEY-TYPE ORBITALS:
atom: Selected multiple-zeta basis: split

[...]

SPLIT: Basis orbitals for state 3s

[...]

SPLIT: Orbitals with angular momentum L= 1

SPLIT: Basis orbitals for state 3p

SPLIT: PAO cut-off radius determined from an
SPLIT: energy shift=  0.002000 Ry

   izeta = 1
                 lambda =    1.000000
                     rc =    8.464845
                 energy =   -0.298236
[...]
ts: Save DM and EDM matrices                        =    F
ts: Only save the overlap matrix S                  =    F
ts: **************************************************************

************************ Begin: TS CHECKS AND WARNINGS ************************
************************ End: TS CHECKS AND WARNINGS **************************

                        Single-point calculation

outcoor: Atomic coordinates (Ang):
    2.21762232   -5.11279452    0.00000000   1       1  H
    1.29501137   -4.59896583    0.00000000   2       2  N
   -0.29904047   -5.42682372    0.00000000   3       3  Si
   -0.24674975   -6.93013012    0.00000000   1       4  H
   -1.72423401   -4.48368219    0.00000000   2       5  N
   -1.16006198   -2.76542566    0.00000000   3       6  Si
   -1.47852890   -0.56637991    0.00000000   3       7  Si
   -3.00339962    0.30830853    0.00000000   2       8  N
   -3.03826294    1.36179510    0.00000000   1       9  H
   -3.94024356   -0.17255215    0.00000000   1      10  H
   -0.07927414    0.45677789    0.00000000   2      11  N
    1.57094203   -0.02429720    0.00000000   3      12  Si
    2.54369079    1.12474014    0.00000000   1      13  H
    2.32454704   -1.59358938    0.00000000   2      14  N
    1.05498597   -2.78042589    0.00000000   3      15  Si

outcell: Unit cell vectors (Ang):
       14.779133    0.000000    0.000000
        0.000000   16.638097    0.000000
        0.000000    0.000000    9.854683

outcell: Cell vector modules (Ang)   :   14.779133   16.638097    9.854683
outcell: Cell angles (23,13,12) (deg):     90.0000     90.0000     90.0000
outcell: Cell volume (Ang**3)        :   2423.2335
<dSpData1D:S at geom step 0
  <sparsity:sparsity for geom step 0
    nrows_g=155 nrows=48 sparsity=.3006 nnzs=7221, refcount: 8>
  <dData1D:(new from dSpData1D) n=7221, refcount: 1>
refcount: 1>
new_DM -- step:     1
Initializing Density Matrix...

Attempting to read DM from file... Failed...
DM filled with atomic data:
<dSpData2D:DM initialized from atoms
  <sparsity:sparsity for geom step 0
    nrows_g=155 nrows=48 sparsity=.3006 nnzs=7221, refcount: 9>
  <dData2D:DM n=7221 m=8, refcount: 1>
refcount: 1>
     spin moment: S , {S} =   30.00000   0.00000   0.00000  30.00000
No. of atoms with KB's overlaping orbs in proc 0. Max # of overlaps:      15     133

Initializing spin-orbit part of the Hamiltonian
  Adding spin-orbit effects for H
  Adding spin-orbit effects for N
  Adding spin-orbit effects for Si

New grid distribution:   1
           1       1:   90    1:   48    1:   30
           2       1:   90    1:   48   31:   60
           3       1:   90   49:   96    1:   30
           4       1:   90   49:   96   31:   60

InitMesh: MESH =   180 x   192 x   120 =     4147200
InitMesh: (bp) =    90 x    96 x    60 =      518400
InitMesh: Mesh cutoff (required, used) =   340.000   368.042 Ry
ExtMesh (bp) on 0 =   202 x   152 x   142 =     4359968
New grid distribution:   2
           1       1:   65    1:   75    1:   60
           2      66:   90    1:   75    1:   60
           3      28:   90   76:   96    1:   60
           4       1:   27   76:   96    1:   60
New grid distribution:   3
           1       1:   53    1:   62    1:   60
           2      54:   90    1:   62    1:   60
           3       1:   51   63:   96    1:   60
           4      52:   90   63:   96    1:   60
Setting up quadratic distribution...
ExtMesh (bp) on 0 =   177 x   179 x   172 =     5449476
PhiOnMesh: Number of (b)points on node 0 =               292500
PhiOnMesh: nlist on node 0 =              1775231

stepf: Fermi-Dirac step function

siesta: Program's energy decomposition (eV):
siesta: Ebs     =      -307.080465
siesta: Eions   =      1645.679058
siesta: Ena     =       215.178036
siesta: Ekin    =      1533.535919
siesta: Enl     =     -1587.653442
siesta: Eso     =        -0.001636
siesta: Edftu   =         0.000000
siesta: DEna    =        98.441495
siesta: DUscf   =        42.863673
siesta: DUext   =         0.000000
siesta: Exc     =      -591.105200
siesta: eta*DQ  =         0.000000
siesta: Emadel  =         0.000000
siesta: Emeta   =         0.000000
siesta: Emolmec =         0.000000
siesta: Ekinion =         0.000000
siesta: Eharris =     -1887.941004
siesta: Etot    =     -1934.420214
siesta: FreeEng =     -1934.420215

        iscf     Eharris(eV)        E_KS(eV)     FreeEng(eV)     dDmax    Ef(eV) dHmax(eV)
   scf:    1    -1887.941004    -1934.420214    -1934.420215  0.945375 -4.889714 19.303767
     spin moment: S , {S} =    2.00002  -0.00000  -0.00000   2.00002
   scf:    2    -1968.643583    -1957.107875    -1957.116010  0.324103 -4.052112  8.540505
     spin moment: S , {S} =    0.07340  -0.00000  -0.00000   0.07340
   scf:    3    -1959.920804    -1958.846403    -1958.846404  0.057926 -3.636122  6.553494
     spin moment: S , {S} =    0.00006  -0.00000   0.00000   0.00006
   scf:    4    -1959.605035    -1959.247019    -1959.247019  0.023532 -3.460596  4.513881
     spin moment: S , {S} =    0.00004  -0.00000   0.00000   0.00004
   scf:    5    -1959.816040    -1959.528996    -1959.528996  0.030926 -3.245614  1.732760
     spin moment: S , {S} =    0.00002  -0.00000  -0.00000   0.00002
   scf:    6    -1959.737263    -1959.628378    -1959.628378  0.021255 -3.783066  0.508366
     spin moment: S , {S} =    0.00001   0.00000  -0.00000   0.00001
   scf:    7    -1959.707134    -1959.665515    -1959.665515  0.012577 -3.753146  0.205778
     spin moment: S , {S} =    0.00000   0.00000  -0.00000   0.00000
   scf:    8    -1959.685441    -1959.675055    -1959.675055  0.005977 -3.746939  0.108311
     spin moment: S , {S} =    0.00000   0.00000  -0.00000   0.00000
   scf:    9    -1959.690499    -1959.682241    -1959.682241  0.006686 -3.744478  0.077009
     spin moment: S , {S} =    0.00000   0.00000  -0.00000   0.00000
   scf:   10    -1959.695164    -1959.687777    -1959.687777  0.008993 -3.741105  0.047909
     spin moment: S , {S} =    0.00000   0.00000  -0.00000   0.00000
   scf:   11    -1959.691079    -1959.689155    -1959.689155  0.005427 -3.739773  0.025377
     spin moment: S , {S} =    0.00000   0.00000  -0.00000   0.00000
   scf:   12    -1959.689899    -1959.689472    -1959.689472  0.002989 -3.738383  0.015662
     spin moment: S , {S} =    0.00000   0.00000  -0.00000   0.00000
   scf:   13    -1959.689614    -1959.689537    -1959.689537  0.001165 -3.738690  0.009554
     spin moment: S , {S} =    0.00000   0.00000  -0.00000   0.00000
   scf:   14    -1959.689629    -1959.689578    -1959.689578  0.001064 -3.738276  0.006770
     spin moment: S , {S} =    0.00000   0.00000  -0.00000   0.00000
   scf:   15    -1959.689627    -1959.689598    -1959.689598  0.001056 -3.738005  0.002270
     spin moment: S , {S} =    0.00000   0.00000  -0.00000  -0.00000
   scf:   16    -1959.689604    -1959.689600    -1959.689600  0.000304 -3.737831  0.001590
     spin moment: S , {S} =    0.00000   0.00000  -0.00000  -0.00000
   scf:   17    -1959.689602    -1959.689601    -1959.689601  0.000188 -3.737768  0.000884
     spin moment: S , {S} =    0.00000   0.00000  -0.00000  -0.00000
   scf:   18    -1959.689602    -1959.689602    -1959.689602  0.000085 -3.737739  0.000648
     spin moment: S , {S} =    0.00000   0.00000  -0.00000  -0.00000
   scf:   19    -1959.689602    -1959.689602    -1959.689602  0.000045 -3.737736  0.000478
     spin moment: S , {S} =    0.00000   0.00000  -0.00000  -0.00000
   scf:   20    -1959.689602    -1959.689602    -1959.689602  0.000037 -3.737738  0.000296
     spin moment: S , {S} =    0.00000   0.00000  -0.00000  -0.00000
   scf:   21    -1959.689602    -1959.689602    -1959.689602  0.000027 -3.737732  0.000176
     spin moment: S , {S} =    0.00000   0.00000  -0.00000  -0.00000
   scf:   22    -1959.689602    -1959.689602    -1959.689602  0.000012 -3.737733  0.000125
     spin moment: S , {S} =    0.00000   0.00000  -0.00000  -0.00000
   scf:   23    -1959.689602    -1959.689602    -1959.689602  0.000012 -3.737738  0.000099
     spin moment: S , {S} =    0.00000   0.00000  -0.00000  -0.00000
   scf:   24    -1959.689602    -1959.689602    -1959.689602  0.000006 -3.737739  0.000072
     spin moment: S , {S} =    0.00000   0.00000  -0.00000  -0.00000
mix: Pulay -- resetting history
   scf:   25    -1959.689602    -1959.689602    -1959.689602  0.000005 -3.737738  0.000046
     spin moment: S , {S} =    0.00000   0.00000  -0.00000  -0.00000
   scf:   26    -1959.689602    -1959.689602    -1959.689602  0.000006 -3.737736  0.000025
     spin moment: S , {S} =    0.00000   0.00000  -0.00000  -0.00000
   scf:   27    -1959.689602    -1959.689602    -1959.689602  0.000003 -3.737736  0.000012
     spin moment: S , {S} =    0.00000   0.00000  -0.00000  -0.00000
   scf:   28    -1959.689602    -1959.689602    -1959.689602  0.000001 -3.737736  0.000007
     spin moment: S , {S} =    0.00000   0.00000  -0.00000  -0.00000
   scf:   29    -1959.689602    -1959.689602    -1959.689602  0.000001 -3.737737  0.000005
     spin moment: S , {S} =    0.00000   0.00000  -0.00000  -0.00000
   scf:   30    -1959.689602    -1959.689602    -1959.689602  0.000001 -3.737737  0.000002
     spin moment: S , {S} =    0.00000   0.00000  -0.00000  -0.00000
   scf:   31    -1959.689602    -1959.689602    -1959.689602  0.000000 -3.737736  0.000001
     spin moment: S , {S} =    0.00000   0.00000  -0.00000  -0.00000

SCF Convergence by DM+H criterion
max |DM_out - DM_in|         :     0.0000002078
max |H_out - H_in|      (eV) :     0.0000008429
SCF cycle converged after 31 iterations

Using DM_out to compute the final energy and forces
No. of atoms with KB's overlaping orbs in proc 0. Max # of overlaps:      15     133

siesta: E_KS(eV) =            -1959.6896

siesta: E_KS - E_eggbox =     -1959.6896
     spin moment: S , {S} =    0.00000   0.00000  -0.00000  -0.00000

siesta: Atomic forces (eV/Ang):
     1   -0.001111   -0.003227   -0.000000
     2    0.000437   -0.002676   -0.000000
     3    0.001772    0.002862   -0.000000
     4    0.000235   -0.000651    0.000000
     5    0.001282   -0.000134    0.000000
     6   -0.000323    0.001159    0.000000
     7   -0.002423    0.001201    0.000000
     8   -0.000538   -0.000238   -0.000000
     9    0.001728   -0.000443    0.000000
    10    0.000752   -0.002398   -0.000000
    11   -0.000033    0.000915   -0.000000
    12    0.000187    0.000300    0.000000
    13   -0.001067    0.003345    0.000000
    14   -0.001784   -0.001655   -0.000000
    15    0.001430   -0.000442    0.000000
   Tot    0.000546   -0.002083    0.000000
   Max    0.003345
   Res    0.001269    sqrt( Sum f_i^2 / 3N )
   Max    0.003345    constrained

Stress tensor Voigt[x,y,z,yz,xz,xy] (kbar):        0.26        0.81        0.02       -0.00        0.00        0.18
(Free)E + p*V (eV/cell)    -1960.2386
Target enthalpy (eV/cell)    -1959.6896

siesta: Eigenvalues (eV):
ik =     1
  -21.2746  -21.2746  -21.1472  -21.1472  -19.7639  -19.7639  -19.4882  -19.4882  -18.9744  -18.9744
  -13.9345  -13.9345  -13.1442  -13.1442  -12.8180  -12.8180  -12.3983  -12.3983  -11.9049  -11.9049
  -11.2535  -11.2535  -10.4971  -10.4971   -9.4666   -9.4666   -9.1308   -9.1308   -8.5478   -8.5478
   -8.4075   -8.4075   -8.2314   -8.2314   -7.6888   -7.6888   -7.6434   -7.6434   -7.0915   -7.0915
   -6.6659   -6.6659   -6.4251   -6.4251   -6.1016   -6.1016   -5.8787   -5.8787   -4.5489   -4.5489
   -2.4913   -2.4913   -2.3792   -2.3792   -2.0201   -2.0201   -1.8942   -1.8942   -1.6747   -1.6747
   -0.9396   -0.9396   -0.5542   -0.5542   -0.4955   -0.4955    0.2326    0.2326    0.3060    0.3060
    1.0050    1.0050    1.0322    1.0322    1.6055    1.6055    1.8735    1.8735    2.1865    2.1865
    2.5049    2.5049    2.6030    2.6030    2.7952    2.7952    2.8408    2.8408    3.5180    3.5180
    3.7840    3.7840    4.0470    4.0470    4.3819    4.3819    4.4105    4.4105    4.7973    4.7973
    4.9309    4.9309    5.5515    5.5515    5.6059    5.6059    5.8223    5.8223    5.9918    5.9918
    6.3022    6.3022    6.8295    6.8295    6.9094    6.9094    7.2311    7.2311    7.4275    7.4275
    7.6875    7.6875    8.0147    8.0147    8.0342    8.0342    8.6149    8.6149    8.6533    8.6533
    9.0717    9.0717    9.3941    9.3941    9.5951    9.5951    9.6161    9.6161   10.1287   10.1287
   10.6202   10.6202   11.0700   11.0700   11.2748   11.2748   11.4470   11.4470   12.1161   12.1161
   12.4440   12.4440   12.7190   12.7190   12.9962   12.9962   13.6004   13.6004   14.2109   14.2109
   14.4649   14.4649   14.8059   14.8059   15.9473   15.9473   16.5241   16.5241   17.0331   17.0331
   17.5590   17.5590   18.2173   18.2173   18.4111   18.4111   18.4812   18.4812   19.9691   19.9691
   20.7749   20.7749   20.8621   20.8621   21.9595   21.9595   22.5432   22.5432   22.8409   22.8409
   24.3697   24.3697   25.3136   25.3136   25.7905   25.7905   26.3289   26.3289   28.1906   28.1906
   29.5816   29.5816   30.3075   30.3075   30.5835   30.5835   30.6797   30.6797   31.0455   31.0455
   31.3540   31.3540   32.0582   32.0582   32.0675   32.0675   33.3600   33.3600   34.5746   34.5746
   35.7541   35.7541   36.9723   36.9723   37.3239   37.3239   37.3621   37.3621   38.2334   38.2334
   40.1633   40.1633   40.5162   40.5162   41.1327   41.1327   41.3354   41.3354   41.4149   41.4149
   42.9776   42.9776   43.6778   43.6778   44.2223   44.2223   44.4722   44.4722   44.9665   44.9665
   45.0589   45.0589   46.1543   46.1543   46.4372   46.4372   46.8967   46.8967   48.5459   48.5459
   50.0896   50.0896   50.2917   50.2917   51.5255   51.5255   53.7487   53.7487   54.6211   54.6211
   56.0004   56.0004   56.5719   56.5719   57.2043   57.2043   59.3896   59.3896   59.8218   59.8218
   60.7518   60.7518   61.2687   61.2687   61.8720   61.8720   65.4695   65.4695   66.8601   66.8601
   68.4665   68.4665   71.0335   71.0335   78.2310   78.2310   92.7301   92.7301   95.2041   95.2041
  100.1554  100.1554  102.5691  102.5691  112.9309  112.9309  122.9762  122.9762  140.0333  140.0333
siesta: Fermi energy =      -3.737736 eV

siesta: Program's energy decomposition (eV):
siesta: Ebs     =      -564.853425
siesta: Eions   =      1645.679058
siesta: Ena     =       215.178036
siesta: Ekin    =      1308.075045
siesta: Enl     =     -1324.900304
siesta: Eso     =        -0.002258
siesta: Edftu   =         0.000000
siesta: DEna    =        29.217715
siesta: DUscf   =         7.180040
siesta: DUext   =         0.000000
siesta: Exc     =      -548.758817
siesta: eta*DQ  =         0.000000
siesta: Emadel  =         0.000000
siesta: Emeta   =         0.000000
siesta: Emolmec =         0.000000
siesta: Ekinion =         0.000000
siesta: Eharris =     -1959.689602
siesta: Etot    =     -1959.689602
siesta: FreeEng =     -1959.689602

siesta: Final energy (eV):
siesta:  Band Struct. =    -564.853425
siesta:       Kinetic =    1308.075045
siesta:       Hartree =    3297.617748
siesta:       Edftu   =       0.000000
siesta:       Eso     =      -0.002258
siesta:    Ext. field =       0.000000
siesta:   Exch.-corr. =    -548.758817
siesta:  Ion-electron =   -7755.732679
siesta:       Ion-ion =    1739.111360
siesta:       Ekinion =       0.000000
siesta:         Total =   -1959.689602
siesta:         Fermi =      -3.737736

siesta: Stress tensor (static) (eV/Ang**3):
siesta:     0.000161    0.000113    0.000000
siesta:     0.000113    0.000508    0.000000
siesta:     0.000000   -0.000000    0.000011

siesta: Cell volume =       2423.233521 Ang**3

siesta: Pressure (static):
siesta:                Solid            Molecule  Units
siesta:          -0.00000247         -0.00000248  Ry/Bohr**3
siesta:          -0.00022656         -0.00022735  eV/Ang**3
siesta:          -0.36299824         -0.36425300  kBar
(Free)E+ p_basis*V_orbitals  =       -1949.007732
(Free)Eharris+ p_basis*V_orbitals  =       -1949.007732
     spin moment: S , {S} =    0.00000   0.00000  -0.00000  -0.00000

siesta: Electric dipole (a.u.)  =   -0.399773   -0.606363   -0.000000
siesta: Electric dipole (Debye) =   -1.016121   -1.541221   -0.000000

cite: Please see "Adenine.bib" for an exhaustive BiBTeX file.
cite: Please clearly indicate Siesta version in published work: v4.1.5-1-g384057250
cite: This calculation has made use of the following articles
cite: which are encouraged to be cited in a published work.
        Primary SIESTA paper
          DOI: www.doi.org/10.1088/0953-8984/14/11/302
        Spin-orbit coupling (on-site approximation)
          DOI: www.doi.org/10.1088/0953-8984/19/19/489001

WARNING: alloc-realloc-dealloc name mismatch
         Name: atomlist isa
         Node:     0
         Subsequent mismatches will not be reported
>> End of run:  15-OCT-2023   9:16:04
Job completed