>> Start of run:  28-JUN-2023  14:43:10

reinit: Reading from standard input
reinit: Dumped input in INPUT_TMP.30487
************************** Dump of input data file ****************************
SystemLabel      GC
NumberOfAtoms    29
NumberOfSpecies  4
%block ChemicalSpeciesLabel
    1    8  O
    2    7  N
    3   14  Si
    4    1  H
%endblock ChemicalSpeciesLabel
# Single point calculation
MD.TypeOfRun                CG
MD.Steps                    0
SCF.MustConverge            F # In case it does not. There can be 2 very close atoms
AtomicCoordinatesFormat NotScaledCartesianAng
%block AtomicCoordinatesAndAtomicSpecies
1.043624880    3.939228610    0.000000000       1
-3.040641290   1.071078170    0.000000000       2
2.054601450    1.213582070    0.000000000       2
0.999014100    -1.732643800   0.000000000       2
-2.132351640   -1.812968220   0.000000000       2
3.860190550    -1.112298180   0.000000000       2
-1.236183220   1.152964460    0.000000000       3
-0.532924260   -0.939006270   0.000000000       3
0.635660470    2.374516770    0.000000000       3
2.245170240    -0.549967100   0.000000000       3
-3.449816660   -0.583665030   0.000000000       3
2.963714090    1.790992630    0.000000000       4
-4.845591350   -1.123549660   0.000000000       4
4.007020910    -2.152308560   0.000000000       4
4.772194380    -0.502318160   0.000000000       4
-2.265399090   -2.864605110   0.000000000       4
4.654786086    4.705246336    0.000000000       3
6.559670056    5.911885276    0.000000000       3
6.063915916    1.938911366    0.000000000       3
8.141386206    4.408128526    0.000000000       3
4.714408756    2.987818766    0.000000000       2
3.115651026    5.458923646    0.000000000       2
7.716211176    2.668748586    0.000000000       2
6.751014856    7.404039026    0.000000000       4
9.625754186    4.626859346    0.000000000       4
3.004305746    6.508118756    0.000000000       4
2.183093316    4.834009466    0.000000000       4
6.053689086    0.330800246    0.000000000       1
8.491637056    1.942057026    0.000000000       4
%endblock AtomicCoordinatesAndAtomicSpecies
%include ../../../Defaults.fdf
************************** End of input data file *****************************

reinit: -----------------------------------------------------------------------
reinit: System Name:
reinit: -----------------------------------------------------------------------
reinit: System Label: GC
reinit: -----------------------------------------------------------------------

initatom: Reading input for the pseudopotentials and atomic orbitals ----------
Species number:   1 Atomic number:    8 Label: O
Species number:   2 Atomic number:    7 Label: N
Species number:   3 Atomic number:   14 Label: Si
Species number:   4 Atomic number:    1 Label: H

Ground state valence configuration:   2s02  2p04
Reading pseudopotential information in formatted form from O.psf

Pseudopotential generated from a relativistic atomic calculation

Valence configuration for pseudopotential generation:
2s( 2.00) rc: 0.45
2p( 4.00) rc: 0.92
3d( 0.00) rc: 2.24
4f( 0.00) rc: 0.25
Ground state valence configuration:   2s02  2p03
Reading pseudopotential information in formatted form from N.psf

[...]

Valence configuration for pseudopotential generation:
2s( 2.00) rc: 0.94
2p( 3.00) rc: 0.59
3d( 0.00) rc: 3.46
4f( 0.00) rc: 2.47
Ground state valence configuration:   3s02  3p02
Reading pseudopotential information in formatted form from Si.psf

[...]

Valence configuration for pseudopotential generation:
3s( 2.00) rc: 1.67
3p( 2.00) rc: 2.04
3d( 0.00) rc: 2.89
4f( 0.00) rc: 2.49
Ground state valence configuration:   1s01
Reading pseudopotential information in formatted form from H.psf

Pseudopotential generated from a relativistic atomic calculation

Valence configuration for pseudopotential generation:
1s( 1.00) rc: 0.01
2p( 0.00) rc: 0.60
3d( 0.00) rc: 1.99
4f( 0.00) rc: 2.49
For O, standard SIESTA heuristics set lmxkb to 3
 (one more than the basis l, including polarization orbitals).
Use PS.lmax or PS.KBprojectors blocks to override.
For N, standard SIESTA heuristics set lmxkb to 3
 (one more than the basis l, including polarization orbitals).
Use PS.lmax or PS.KBprojectors blocks to override.
For Si, standard SIESTA heuristics set lmxkb to 3
 (one more than the basis l, including polarization orbitals).
Use PS.lmax or PS.KBprojectors blocks to override.
For H, standard SIESTA heuristics set lmxkb to 2
 (one more than the basis l, including polarization orbitals).
Use PS.lmax or PS.KBprojectors blocks to override.

<basis_specs>
O                    Z=   8    Mass=  16.000        Charge= 0.17977+309
Lmxo=1 Lmxkb= 3    BasisType=split      Semic=F
L=0  Nsemic=0  Cnfigmx=2
          i=1  nzeta=2  polorb=0  (2s)
            splnorm:   0.28000
               vcte:    0.0000
               rinn:    0.0000
               qcoe:    0.0000
               qyuk:    0.0000
               qwid:   0.10000E-01
                rcs:    0.0000      0.0000
            lambdas:    1.0000      1.0000
L=1  Nsemic=0  Cnfigmx=2
          i=1  nzeta=2  polorb=1  (2p)
            splnorm:   0.28000
               vcte:    0.0000
               rinn:    0.0000
               qcoe:    0.0000
               qyuk:    0.0000
               qwid:   0.10000E-01
                rcs:    0.0000      0.0000
            lambdas:    1.0000      1.0000
L=0  Nkbl=1  erefs: 0.17977+309
L=1  Nkbl=1  erefs: 0.17977+309
L=2  Nkbl=1  erefs: 0.17977+309
L=3  Nkbl=1  erefs: 0.17977+309
</basis_specs>

atom: Called for O                     (Z =   8)

read_vps: Pseudopotential generation method:
read_vps: ATM4.2.7  Troullier-Martins
Valence charge for ps generation:    6.00000

xc_check: Exchange-correlation functional:
xc_check: GGA Perdew, Burke & Ernzerhof 1996
V l=0 = -2*Zval/r beyond r=  1.1000
V l=1 = -2*Zval/r beyond r=  1.1000
V l=2 = -2*Zval/r beyond r=  2.2154
V l=3 = -2*Zval/r beyond r=  1.1000
All V_l potentials equal beyond r=  2.2154
This should be close to max(r_c) in ps generation
All pots = -2*Zval/r beyond r=  2.2154

VLOCAL1: 99.0% of the norm of Vloc inside      8.845 Ry
VLOCAL1: 99.9% of the norm of Vloc inside     20.157 Ry
atom: Maximum radius for 4*pi*r*r*local-pseudopot. charge    2.67231
atom: Maximum radius for r*vlocal+2*Zval:    2.32897
GHOST: No ghost state for L =  0
GHOST: No ghost state for L =  1
GHOST: No ghost state for L =  2
GHOST: No ghost state for L =  3

KBgen: Kleinman-Bylander projectors:
   l= 0   rc=  2.243238   el= -1.759686   Ekb=**********   kbcos= -0.171774
   l= 1   rc=  2.328968   el= -0.663873   Ekb=-14.506792   kbcos= -0.519897
   l= 2   rc=  2.573941   el=  0.002031   Ekb= -1.137373   kbcos= -0.019581
   l= 3   rc=  2.606321   el=  0.003153   Ekb= -1.013546   kbcos= -0.003122

KBgen: Total number of Kleinman-Bylander projectors:   16
atom: -------------------------------------------------------------------------

atom: SANKEY-TYPE ORBITALS:
atom: Selected multiple-zeta basis: split

SPLIT: Orbitals with angular momentum L= 0

SPLIT: Basis orbitals for state 2s

SPLIT: PAO cut-off radius determined from an
SPLIT: energy shift=  0.002000 Ry

   izeta = 1
                 lambda =    1.000000
                     rc =    4.243912
                 energy =   -1.758270
                kinetic =    3.286084
    potential(screened) =   -5.044353
       potential(ionic) =  -12.921184

   izeta = 2
                 rmatch =    2.187845
              splitnorm =    0.280000
                 energy =   -0.885018
                kinetic =    8.134434
    potential(screened) =   -9.019452
       potential(ionic) =  -17.710645

[...]

SPLIT: Basis orbitals for state 2p

[...]

POLgen: Perturbative polarization orbital with L=  2

POLgen: Polarization orbital for state 2p

   izeta = 1
                     rc =    5.314825
                 energy =    1.970580
                kinetic =    3.886128
    potential(screened) =   -1.915547
       potential(ionic) =   -7.749584
atom: Total number of Sankey-type orbitals: 13

atm_pop: Valence configuration (for local Pseudopot. screening):
 2s( 2.00)
 2p( 4.00)
Vna: chval, zval:    6.00000   6.00000

Vna:  Cut-off radius for the neutral-atom potential:   5.314825

atom: _________________________________________________________________________

[...]

KBgen: Kleinman-Bylander projectors:
   l= 0   rc=  3.417763   el= -1.365098   Ekb= -4.433130   kbcos= -0.707855
   l= 1   rc=  3.375302   el= -0.521201   Ekb=-13.264039   kbcos= -0.535594
   l= 2   rc=  3.872880   el=  0.001991   Ekb= -0.641094   kbcos= -0.062456
   l= 3   rc=  3.970931   el=  0.003093   Ekb= -0.474517   kbcos= -0.018236

[...]

<basis_specs>
Si                   Z=  14    Mass=  28.090        Charge= 0.17977+309
Lmxo=1 Lmxkb= 3    BasisType=split      Semic=F
L=0  Nsemic=0  Cnfigmx=3
          i=1  nzeta=2  polorb=0  (3s)
            splnorm:   0.28000
               vcte:    0.0000
               rinn:    0.0000
               qcoe:    0.0000
               qyuk:    0.0000
               qwid:   0.10000E-01
                rcs:    0.0000      0.0000
            lambdas:    1.0000      1.0000
L=1  Nsemic=0  Cnfigmx=3
          i=1  nzeta=2  polorb=1  (3p)
            splnorm:   0.28000
               vcte:    0.0000
               rinn:    0.0000
               qcoe:    0.0000
               qyuk:    0.0000
               qwid:   0.10000E-01
                rcs:    0.0000      0.0000
            lambdas:    1.0000      1.0000
L=0  Nkbl=1  erefs: 0.17977+309
L=1  Nkbl=1  erefs: 0.17977+309
L=2  Nkbl=1  erefs: 0.17977+309
L=3  Nkbl=1  erefs: 0.17977+309
</basis_specs>

[...]

KBgen: Kleinman-Bylander projectors:
   l= 0   rc=  3.075247   el= -0.794092   Ekb=  5.879390   kbcos=  0.167461
   l= 1   rc=  3.153101   el= -0.300068   Ekb=  2.642817   kbcos=  0.058301
   l= 2   rc=  3.273594   el=  0.001958   Ekb= -1.185135   kbcos= -0.104411
   l= 3   rc=  3.232927   el=  0.003046   Ekb= -0.497174   kbcos= -0.015889

[...]

SPLIT: Basis orbitals for state 3p

[...]

POLgen: Polarization orbital for state 3p

[...]

atm_pop: Valence configuration (for local Pseudopot. screening):
 3s( 2.00)
 3p( 2.00)
Vna: chval, zval:    4.00000   4.00000

[...]

<basis_specs>
H                    Z=   1    Mass=  1.0100        Charge= 0.17977+309
Lmxo=0 Lmxkb= 2    BasisType=split      Semic=F
L=0  Nsemic=0  Cnfigmx=1
          i=1  nzeta=2  polorb=1  (1s)
            splnorm:   0.62000
               vcte:    0.0000
               rinn:    0.0000
               qcoe:    0.0000
               qyuk:    0.0000
               qwid:   0.10000E-01
                rcs:    0.0000      0.0000
            lambdas:    1.0000      1.0000
L=0  Nkbl=1  erefs: 0.17977+309
L=1  Nkbl=1  erefs: 0.17977+309
L=2  Nkbl=1  erefs: 0.17977+309
</basis_specs>

atom: Called for H                     (Z =   1)

read_vps: Pseudopotential generation method:
read_vps: ATM4.2.7  Troullier-Martins
Valence charge for ps generation:    1.00000

xc_check: Exchange-correlation functional:
xc_check: GGA Perdew, Burke & Ernzerhof 1996
V l=0 = -2*Zval/r beyond r=  0.0098
V l=1 = -2*Zval/r beyond r=  0.5817
V l=2 = -2*Zval/r beyond r=  1.9372
[...]
     spin moment: S , {S} =    0.00000   0.00000   0.00000   0.00000

SCF Convergence by DM+H criterion
max |DM_out - DM_in|         :     0.0000001710
max |H_out - H_in|      (eV) :     0.0000006668
SCF cycle converged after 30 iterations

Using DM_out to compute the final energy and forces
No. of atoms with KB's overlaping orbs in proc 0. Max # of overlaps:      29     214

siesta: E_KS(eV) =            -4147.9735

siesta: E_KS - E_eggbox =     -4147.9735
     spin moment: S , {S} =    0.00000   0.00000   0.00000   0.00000

siesta: Atomic forces (eV/Ang):
     1   -0.312989   -1.608249    0.000000
     2   -0.037738    0.040963   -0.000000
     3   -0.068157    0.004277   -0.000000
     4   -0.051638    0.012477   -0.000000
     5   -0.005413    0.035242   -0.000000
     6   -0.255214   -0.109997   -0.000000
     7   -0.001225    0.020634   -0.000000
     8    0.024279   -0.021951    0.000000
     9   -0.002316   -0.095341    0.000000
    10    0.049354   -0.034515   -0.000000
    11   -0.001269    0.001086   -0.000000
    12    0.142674   -0.034175    0.000000
    13   -0.033771   -0.023423    0.000000
    14   -0.035057   -0.203652    0.000000
    15    0.083475    0.013070    0.000000
    16   -0.018168    0.041473    0.000000
    17   -0.058169    0.088872    0.000000
    18    0.009327   -0.016879   -0.000000
    19    0.030996    0.090913   -0.000000
    20    0.001292    0.025902    0.000000
    21    0.044610   -0.037245    0.000000
    22    0.292380    0.173265   -0.000000
    23   -0.059230   -0.066936   -0.000000
    24    0.088225   -0.046510   -0.000000
    25    0.109396   -0.061771   -0.000000
    26    0.053284   -0.072629    0.000000
    27   -0.126888   -0.119531   -0.000000
    28    0.952840    4.372546    0.000000
    29   -0.014878    0.099623   -0.000000
   Tot    0.800012    2.467540    0.000000
   Max    4.372546
   Res    0.515425    sqrt( Sum f_i^2 / 3N )
   Max    4.372546    constrained

Stress tensor Voigt[x,y,z,yz,xz,xy] (kbar):       -1.07        0.48       -0.11       -0.00       -0.00       -0.34
(Free)E + p*V (eV/cell)    -4147.3387
Target enthalpy (eV/cell)    -4147.9735

mulliken: Atomic and Orbital Populations:

Species: O

Atom      Orb        Charge      Spin       Svec
    1  7 2pz       -0.01827   0.00000     -0.000  -0.000   0.000
    1  9 3Pdxy      0.00969   0.00000     -0.000   0.000  -0.000
    1 10 3Pdyz      0.00710   0.00000      0.000   0.000   0.000
    1 11 3Pdz2      0.00234   0.00000      0.000  -0.000   0.000
    1 12 3Pdxz      0.00010   0.00000      0.000  -0.000  -0.000
    1 13 3Pdx2-y2   0.00549   0.00000     -0.000   0.000  -0.000
    1     Total     6.50007   0.00000     -0.000   0.000  -0.000

   28  7 2pz       -0.01677   0.00000      0.000  -0.000   0.000
   28  8 2px       -0.00454   0.00000      0.000   0.000   0.000
   28  9 3Pdxy      0.00920   0.00000      0.000  -0.000   0.000
   28 10 3Pdyz      0.00839   0.00000     -0.000   0.000   0.000
   28 11 3Pdz2      0.00203   0.00000      0.000  -0.000  -0.000
   28 12 3Pdxz      0.00000   0.00000     -0.000   0.000  -0.000
   28 13 3Pdx2-y2   0.00738   0.00000     -0.000   0.000   0.000
   28     Total     6.51014   0.00000     -0.000  -0.000  -0.000

Total              13.01021   0.00000     -0.000  -0.000  -0.000

[...]

Atom      Orb        Charge      Spin       Svec
    2  9 3Pdxy      0.00834   0.00000     -0.000  -0.000   0.000
    2 10 3Pdyz      0.01094   0.00000     -0.000  -0.000  -0.000
    2 11 3Pdz2      0.00189   0.00000      0.000  -0.000  -0.000
    2 12 3Pdxz      0.00755   0.00000      0.000  -0.000  -0.000
    2 13 3Pdx2-y2   0.00908   0.00000     -0.000  -0.000   0.000
    2     Total     5.37171   0.00000     -0.000  -0.000   0.000

    3  9 3Pdxy      0.00404   0.00000     -0.000  -0.000   0.000
    3 10 3Pdyz      0.00391   0.00000      0.000   0.000   0.000
    3 11 3Pdz2      0.00045   0.00000     -0.000   0.000  -0.000
    3 12 3Pdxz      0.00276   0.00000     -0.000   0.000   0.000
    3 13 3Pdx2-y2   0.00245   0.00000     -0.000  -0.000  -0.000
    3     Total     5.51071   0.00000      0.000  -0.000  -0.000

[...]

Atom      Orb        Charge      Spin       Svec
    7  9 3Pdxy      0.24620   0.00000     -0.000   0.000  -0.000
    7 10 3Pdyz      0.02837   0.00000      0.000   0.000   0.000
    7 11 3Pdz2      0.01133   0.00000      0.000  -0.000   0.000
    7 12 3Pdxz      0.14722   0.00000     -0.000   0.000   0.000
    7 13 3Pdx2-y2   0.11392   0.00000     -0.000  -0.000   0.000
    7     Total     3.84099   0.00000     -0.000   0.000  -0.000

    8  5 3px       -0.02065   0.00000      0.000   0.000  -0.000
    8  9 3Pdxy      0.24957   0.00000      0.000  -0.000   0.000
    8 10 3Pdyz      0.11174   0.00000     -0.000  -0.000  -0.000
    8 11 3Pdz2      0.01353   0.00000     -0.000   0.000  -0.000
    8 12 3Pdxz      0.15760   0.00000     -0.000   0.000  -0.000
    8 13 3Pdx2-y2   0.20375   0.00000      0.000  -0.000   0.000
    8     Total     3.65701   0.00000      0.000   0.000  -0.000

[...]

   20  9 3Pdxy      0.09885   0.00000     -0.000  -0.000   0.000
   20 10 3Pdyz      0.12885   0.00000     -0.000   0.000   0.000
   20 11 3Pdz2      0.00792   0.00000     -0.000  -0.000  -0.000
   20 12 3Pdxz      0.02634   0.00000      0.000   0.000  -0.000
   20 13 3Pdx2-y2   0.17756   0.00000      0.000  -0.000   0.000
   20     Total     3.53132   0.00000      0.000  -0.000   0.000

[...]

Species: H

Atom      Orb        Charge      Spin       Svec
   12  3 2Ppy       0.04298   0.00000     -0.000   0.000   0.000
   12  4 2Ppz       0.03174   0.00000     -0.000   0.000  -0.000
   12  5 2Ppx       0.05261   0.00000     -0.000  -0.000   0.000
   12     Total     0.78771   0.00000     -0.000   0.000   0.000

   13  3 2Ppy       0.01804   0.00000      0.000  -0.000  -0.000
   13  4 2Ppz       0.02001   0.00000     -0.000  -0.000  -0.000
   13  5 2Ppx       0.03503   0.00000      0.000  -0.000   0.000
   13     Total     1.18859   0.00000      0.000  -0.000   0.000

[...]

   29  3 2Ppy       0.02495   0.00000     -0.000  -0.000   0.000
   29  4 2Ppz       0.03522   0.00000      0.000   0.000  -0.000
   29  5 2Ppx       0.02719   0.00000      0.000   0.000  -0.000
   29     Total     0.76514   0.00000      0.000   0.000  -0.000

Total              98.00000   0.00000      0.000   0.000   0.000

siesta: Eigenvalues (eV):
ik =     1
  -22.9635  -22.9635  -22.5644  -22.5644  -21.4503  -21.4503  -21.2269  -21.2269  -20.8944  -20.8944
  -20.6436  -20.6436  -20.1899  -20.1899  -19.6500  -19.6500  -19.4711  -19.4711  -19.3589  -19.3589
  -14.7965  -14.7965  -13.8005  -13.8005  -13.2672  -13.2672  -13.1132  -13.1132  -12.9983  -12.9983
  -12.6518  -12.6518  -12.5550  -12.5550  -12.1120  -12.1120  -11.8659  -11.8659  -11.7123  -11.7123
  -10.9883  -10.9883  -10.8415  -10.8415  -10.5837  -10.5837  -10.3404  -10.3404  -10.2011  -10.2011
   -9.7082   -9.7082   -9.1105   -9.1105   -8.9835   -8.9835   -8.8356   -8.8356   -8.7020   -8.7020
   -8.4724   -8.4724   -8.4020   -8.4020   -8.3746   -8.3746   -7.9594   -7.9594   -7.8602   -7.8602
   -7.5944   -7.5944   -7.3709   -7.3709   -7.3413   -7.3413   -7.1524   -7.1524   -6.9478   -6.9478
   -6.7488   -6.7488   -6.6320   -6.6320   -6.4346   -6.4346   -6.4235   -6.4235   -6.2595   -6.2595
   -6.0212   -6.0212   -5.9634   -5.9634   -5.5685   -5.5685   -4.3200   -4.3200   -3.2495   -3.2495
   -2.3741   -2.3741   -2.3616   -2.3616   -2.1848   -2.1848   -1.9079   -1.9079   -1.8687   -1.8687
   -1.8623   -1.8623   -1.6272   -1.6272   -1.6123   -1.6123   -1.2755   -1.2755   -1.1068   -1.1068
   -1.0261   -1.0261   -0.5248   -0.5248   -0.5142   -0.5142   -0.2966   -0.2966    0.3799    0.3799
    0.4733    0.4733    0.5072    0.5072    0.6581    0.6581    0.9601    0.9601    1.0933    1.0933
    1.3987    1.3987    1.3999    1.3999    1.4714    1.4714    1.5604    1.5604    2.0073    2.0073
    2.1527    2.1527    2.6572    2.6572    2.7184    2.7184    2.7443    2.7443    2.8696    2.8696
    2.9951    2.9951    3.1771    3.1771    3.4160    3.4160    3.4252    3.4252    3.6933    3.6933
    3.8065    3.8065    4.0189    4.0189    4.1005    4.1005    4.2246    4.2246    4.3870    4.3870
    4.5480    4.5480    4.6069    4.6069    4.7605    4.7605    5.0616    5.0616    5.1854    5.1854
    5.3268    5.3268    5.4711    5.4711    5.6760    5.6760    5.7787    5.7787    5.8813    5.8813
    5.9493    5.9493    6.3988    6.3988    6.4293    6.4293    6.5452    6.5452    6.5891    6.5891
    6.8792    6.8792    6.9935    6.9935    7.0557    7.0557    7.1693    7.1693    7.2093    7.2093
    7.3753    7.3753    7.6938    7.6938    7.7128    7.7128    8.0234    8.0234    8.0833    8.0833
    8.2472    8.2472    8.5217    8.5217    8.6667    8.6667    8.7187    8.7187    8.7784    8.7784
    8.8003    8.8003    8.9968    8.9968    9.1040    9.1040    9.2146    9.2146    9.4743    9.4743
    9.6190    9.6190    9.8881    9.8881    9.9869    9.9869   10.0685   10.0685   10.1340   10.1340
   10.3645   10.3645   10.6722   10.6722   10.8495   10.8495   11.2293   11.2293   11.3428   11.3428
   11.3711   11.3711   11.7363   11.7363   12.3184   12.3184   12.4227   12.4227   12.4266   12.4266
   12.5662   12.5662   12.7110   12.7110   12.9496   12.9496   13.0239   13.0239   13.3504   13.3504
   13.6110   13.6110   13.7549   13.7549   13.9235   13.9235   14.0481   14.0481   14.1346   14.1346
   14.2859   14.2859   14.5934   14.5934   14.8683   14.8683   14.9559   14.9559   15.1702   15.1702
   15.4461   15.4461   16.2749   16.2749   16.6441   16.6441   16.6695   16.6695   16.8883   16.8883
   17.3344   17.3344   17.8319   17.8319   18.3477   18.3477   18.5580   18.5580   19.0672   19.0672
   19.3061   19.3061   20.2193   20.2193   20.2668   20.2668   20.6480   20.6480   20.7846   20.7846
   21.2403   21.2403   22.0123   22.0123   22.2455   22.2455   22.7570   22.7570   23.5875   23.5875
   23.8484   23.8484   24.0045   24.0045   24.2392   24.2392   24.8147   24.8147   25.2307   25.2307
   26.0149   26.0149   26.1050   26.1050   26.6058   26.6058   27.8651   27.8651   28.8195   28.8195
   29.5184   29.5184   29.8138   29.8138   30.0132   30.0132   30.3795   30.3795   30.6932   30.6932
   30.8806   30.8806   30.9940   30.9940   31.3414   31.3414   31.5949   31.5949   31.8177   31.8177
   32.8409   32.8409   33.6180   33.6180   33.8458   33.8458   33.9333   33.9333   34.1003   34.1003
   35.1194   35.1194   35.5256   35.5256   35.9650   35.9650   36.1498   36.1498   36.6065   36.6065
   37.0502   37.0502   37.1863   37.1863   37.2676   37.2676   37.4823   37.4823   38.7186   38.7186
   39.0436   39.0436   39.1806   39.1806   39.7284   39.7284   39.9667   39.9667   40.3940   40.3940
   40.7662   40.7662   40.8763   40.8763   41.5891   41.5891   41.8149   41.8149   42.0342   42.0342
   42.3238   42.3238   42.9704   42.9704   43.2346   43.2346   43.2433   43.2433   44.0538   44.0538
   44.3898   44.3898   44.5619   44.5619   44.6167   44.6167   45.0605   45.0605   45.0925   45.0925
   45.2825   45.2825   45.5931   45.5931   46.3394   46.3394   46.5540   46.5540   46.8327   46.8327
   47.2261   47.2261   47.7752   47.7752   48.6963   48.6963   49.2374   49.2374   49.9524   49.9524
   50.1203   50.1203   50.3021   50.3021   50.4504   50.4504   50.8049   50.8049   51.4956   51.4956
   51.5493   51.5493   52.0556   52.0556   52.6603   52.6603   53.0968   53.0968   54.0612   54.0612
   54.4890   54.4890   54.6802   54.6802   55.6471   55.6471   55.8022   55.8022   56.3051   56.3051
   56.3810   56.3810   57.0056   57.0056   58.5281   58.5281   58.7441   58.7441   59.4979   59.4979
   60.2431   60.2431   60.3131   60.3131   61.2656   61.2656   61.4025   61.4025   62.4247   62.4247
   62.6800   62.6800   63.1885   63.1885   63.3935   63.3935   64.2920   64.2920   66.6310   66.6310
   67.0830   67.0830   68.0370   68.0370   69.7630   69.7630   69.9141   69.9141   70.7797   70.7797
   72.1257   72.1257   72.1490   72.1490   73.4865   73.4865   76.0650   76.0650   88.1764   88.1764
   89.8335   89.8335   91.0538   91.0538   94.7307   94.7307   96.7923   96.7923   97.4800   97.4800
  101.6088  101.6088  102.5769  102.5769  103.7089  103.7089  104.6559  104.6559  106.7985  106.7985
  116.1240  116.1240  118.3114  118.3114  125.0912  125.0912  128.0160  128.0160  139.6502  139.6502
  145.4781  145.4781  147.8383  147.8383
siesta: Fermi energy =      -3.785209 eV

siesta: Program's energy decomposition (eV):
siesta: Ebs     =     -1134.854322
siesta: Eions   =      3585.165840
siesta: Ena     =       381.755527
siesta: Ekin    =      2912.675684
siesta: Enl     =     -2796.216278
siesta: Eso     =        -0.004329
siesta: Edftu   =         0.000000
siesta: DEna    =        48.263459
siesta: DUscf   =        13.672982
siesta: DUext   =         0.000000
siesta: Exc     =     -1122.954659
siesta: eta*DQ  =         0.000000
siesta: Emadel  =         0.000000
siesta: Emeta   =         0.000000
siesta: Emolmec =         0.000000
siesta: Ekinion =         0.000000
siesta: Eharris =     -4147.973455
siesta: Etot    =     -4147.973455
siesta: FreeEng =     -4147.973455

siesta: Final energy (eV):
siesta:  Band Struct. =   -1134.854322
siesta:       Kinetic =    2912.675684
siesta:       Hartree =    9095.452605
siesta:       Edftu   =       0.000000
siesta:       Eso     =      -0.004329
siesta:    Ext. field =       0.000000
siesta:   Exch.-corr. =   -1122.954659
siesta:  Ion-electron =  -20780.468836
siesta:       Ion-ion =    5747.326081
siesta:       Ekinion =       0.000000
siesta:         Total =   -4147.973455
siesta:         Fermi =      -3.785209

siesta: Atomic forces (eV/Ang):
siesta:      1   -0.312989   -1.608249    0.000000
siesta:      2   -0.037738    0.040963   -0.000000
siesta:      3   -0.068157    0.004277   -0.000000
siesta:      4   -0.051638    0.012477   -0.000000
siesta:      5   -0.005413    0.035242   -0.000000
siesta:      6   -0.255214   -0.109997   -0.000000
siesta:      7   -0.001225    0.020634   -0.000000
siesta:      8    0.024279   -0.021951    0.000000
siesta:      9   -0.002316   -0.095341    0.000000
siesta:     10    0.049354   -0.034515   -0.000000
siesta:     11   -0.001269    0.001086   -0.000000
siesta:     12    0.142674   -0.034175    0.000000
siesta:     13   -0.033771   -0.023423    0.000000
siesta:     14   -0.035057   -0.203652    0.000000
siesta:     15    0.083475    0.013070    0.000000
siesta:     16   -0.018168    0.041473    0.000000
siesta:     17   -0.058169    0.088872    0.000000
siesta:     18    0.009327   -0.016879   -0.000000
siesta:     19    0.030996    0.090913   -0.000000
siesta:     20    0.001292    0.025902    0.000000
siesta:     21    0.044610   -0.037245    0.000000
siesta:     22    0.292380    0.173265   -0.000000
siesta:     23   -0.059230   -0.066936   -0.000000
siesta:     24    0.088225   -0.046510   -0.000000
siesta:     25    0.109396   -0.061771   -0.000000
siesta:     26    0.053284   -0.072629    0.000000
siesta:     27   -0.126888   -0.119531   -0.000000
siesta:     28    0.952840    4.372546    0.000000
siesta:     29   -0.014878    0.099623   -0.000000
siesta: ----------------------------------------
siesta:    Tot    0.800012    2.467540    0.000000

siesta: Stress tensor (static) (eV/Ang**3):
siesta:    -0.000669   -0.000209   -0.000000
siesta:    -0.000209    0.000301   -0.000000
siesta:    -0.000000   -0.000000   -0.000068

siesta: Cell volume =       4374.587751 Ang**3

siesta: Pressure (static):
siesta:                Solid            Molecule  Units
siesta:           0.00000158          0.00000503  Ry/Bohr**3
siesta:           0.00014510          0.00046174  eV/Ang**3
siesta:           0.23247454          0.73979287  kBar
(Free)E+ p_basis*V_orbitals  =       -4128.123037
(Free)Eharris+ p_basis*V_orbitals  =       -4128.123037
     spin moment: S , {S} =    0.00000   0.00000   0.00000   0.00000

siesta: Electric dipole (a.u.)  =    1.637121    0.170816    0.000000
siesta: Electric dipole (Debye) =    4.161149    0.434170    0.000000

cite: Please see "GC.bib" for an exhaustive BiBTeX file.
cite: Please clearly indicate Siesta version in published work: v4.1.5-1-g384057250
cite: This calculation has made use of the following articles
cite: which are encouraged to be cited in a published work.
        Primary SIESTA paper
          DOI: www.doi.org/10.1088/0953-8984/14/11/302
        Spin-orbit coupling (on-site approximation)
          DOI: www.doi.org/10.1088/0953-8984/19/19/489001

WARNING: alloc-realloc-dealloc name mismatch
         Name: atomlist isa
         Node:     0
         Subsequent mismatches will not be reported
>> End of run:  28-JUN-2023  14:48:43
Job completed