>> Start of run:  12-MAY-2023  11:35:05

reinit: Reading from standard input
reinit: Dumped input in INPUT_TMP.59370
************************** Dump of input data file ****************************
# mpirun -np 4 siesta-4.1.5 < Adenine.fdf > Adenine.out
SystemLabel      Adenine
NumberOfAtoms    15
NumberOfSpecies  3
%block ChemicalSpeciesLabel
    1    1  H
    2    7  N
    3   14  Si
%endblock ChemicalSpeciesLabel
# This overrides Defaults.fdf configuration
MD.TypeOfRun                CG # CG, Verlet
AtomicCoordinatesFormat NotScaledCartesianAng
%block AtomicCoordinatesAndAtomicSpecies
    2.45678154   -5.19628603    0.00000000   1       1  H
    1.53043803   -4.68850309    0.00000000   2       2  N
   -0.05994288   -5.52124565    0.00000000   3       3  Si
   -0.00012610   -7.01526228    0.00000000   1       4  H
   -1.49856740   -4.60156292    0.00000000   2       5  N
   -0.94448620   -2.88146937    0.00000000   3       6  Si
   -1.28997922   -0.69291309    0.00000000   3       7  Si
   -2.82542950    0.15885311    0.00000000   2       8  N
   -2.86640446    1.21156880    0.00000000   1       9  H
   -3.75591339   -0.33501627    0.00000000   1      10  H
    0.09801750    0.34309317    0.00000000   2      11  N
    1.75090491   -0.12159776    0.00000000   3      12  Si
    2.70168860    1.03869620    0.00000000   1      13  H
    2.53038958   -1.67804686    0.00000000   2      14  N
    1.27127984   -2.87467609    0.00000000   3      15  Si
%endblock AtomicCoordinatesAndAtomicSpecies
%include ../../Defaults.fdf
************************** End of input data file *****************************

reinit: -----------------------------------------------------------------------
reinit: System Name:
reinit: -----------------------------------------------------------------------
reinit: System Label: Adenine
reinit: -----------------------------------------------------------------------

initatom: Reading input for the pseudopotentials and atomic orbitals ----------
Species number:   1 Atomic number:    1 Label: H
Species number:   2 Atomic number:    7 Label: N
Species number:   3 Atomic number:   14 Label: Si

Ground state valence configuration:   1s01
Reading pseudopotential information in formatted form from H.psf

Pseudopotential generated from a relativistic atomic calculation

Valence configuration for pseudopotential generation:
1s( 1.00) rc: 0.01
2p( 0.00) rc: 0.60
3d( 0.00) rc: 1.99
4f( 0.00) rc: 2.49
Ground state valence configuration:   2s02  2p03
Reading pseudopotential information in formatted form from N.psf

[...]

Valence configuration for pseudopotential generation:
2s( 2.00) rc: 0.94
2p( 3.00) rc: 0.59
3d( 0.00) rc: 3.46
4f( 0.00) rc: 2.47
Ground state valence configuration:   3s02  3p02
Reading pseudopotential information in formatted form from Si.psf

Pseudopotential generated from a relativistic atomic calculation

Valence configuration for pseudopotential generation:
3s( 2.00) rc: 1.67
3p( 2.00) rc: 2.04
3d( 0.00) rc: 2.89
4f( 0.00) rc: 2.49
For H, standard SIESTA heuristics set lmxkb to 2
 (one more than the basis l, including polarization orbitals).
Use PS.lmax or PS.KBprojectors blocks to override.
For N, standard SIESTA heuristics set lmxkb to 3
 (one more than the basis l, including polarization orbitals).
Use PS.lmax or PS.KBprojectors blocks to override.
For Si, standard SIESTA heuristics set lmxkb to 3
 (one more than the basis l, including polarization orbitals).
Use PS.lmax or PS.KBprojectors blocks to override.

<basis_specs>
H                    Z=   1    Mass=  1.0100        Charge= 0.17977+309
Lmxo=0 Lmxkb= 2    BasisType=split      Semic=F
L=0  Nsemic=0  Cnfigmx=1
          i=1  nzeta=2  polorb=1  (1s)
            splnorm:   0.62000
               vcte:    0.0000
               rinn:    0.0000
               qcoe:    0.0000
               qyuk:    0.0000
               qwid:   0.10000E-01
                rcs:    0.0000      0.0000
            lambdas:    1.0000      1.0000
L=0  Nkbl=1  erefs: 0.17977+309
L=1  Nkbl=1  erefs: 0.17977+309
L=2  Nkbl=1  erefs: 0.17977+309
</basis_specs>

atom: Called for H                     (Z =   1)

read_vps: Pseudopotential generation method:
read_vps: ATM4.2.7  Troullier-Martins
Valence charge for ps generation:    1.00000

xc_check: Exchange-correlation functional:
xc_check: GGA Perdew, Burke & Ernzerhof 1996
V l=0 = -2*Zval/r beyond r=  0.0098
V l=1 = -2*Zval/r beyond r=  0.5817
V l=2 = -2*Zval/r beyond r=  1.9372
All V_l potentials equal beyond r=  1.9372
This should be close to max(r_c) in ps generation
All pots = -2*Zval/r beyond r=  1.9372

VLOCAL1: 99.0% of the norm of Vloc inside     11.567 Ry
VLOCAL1: 99.9% of the norm of Vloc inside     26.362 Ry
atom: Maximum radius for 4*pi*r*r*local-pseudopot. charge    2.25106
atom: Maximum radius for r*vlocal+2*Zval:    1.91306
GHOST: No ghost state for L =  0
GHOST: No ghost state for L =  1
GHOST: No ghost state for L =  2

KBgen: Kleinman-Bylander projectors:
   l= 0   rc=  2.036604   el= -0.477180   Ekb= -6.081590   kbcos= -0.277285
   l= 1   rc=  2.195416   el=  0.001076   Ekb= -0.926943   kbcos= -0.034643
   l= 2   rc=  2.251056   el=  0.002010   Ekb= -0.130941   kbcos= -0.009788

KBgen: Total number of Kleinman-Bylander projectors:    9
atom: -------------------------------------------------------------------------

atom: SANKEY-TYPE ORBITALS:
atom: Selected multiple-zeta basis: split

SPLIT: Orbitals with angular momentum L= 0

SPLIT: Basis orbitals for state 1s

SPLIT: PAO cut-off radius determined from an
SPLIT: energy shift=  0.002000 Ry

   izeta = 1
                 lambda =    1.000000
                     rc =    6.518340
                 energy =   -0.475305
                kinetic =    0.912139
    potential(screened) =   -1.387444
       potential(ionic) =   -1.907295

   izeta = 2
                 rmatch =    2.141150
              splitnorm =    0.620000
                 energy =    0.566467
                kinetic =    3.772856
    potential(screened) =   -3.206389
       potential(ionic) =   -3.759093

POLgen: Perturbative polarization orbital with L=  1

POLgen: Polarization orbital for state 1s

   izeta = 1
                     rc =    6.518340
                 energy =    0.533861
                kinetic =    1.121086
    potential(screened) =   -0.587225
       potential(ionic) =   -1.053027
atom: Total number of Sankey-type orbitals:  5

atm_pop: Valence configuration (for local Pseudopot. screening):
 1s( 1.00)
Vna: chval, zval:    1.00000   1.00000

Vna:  Cut-off radius for the neutral-atom potential:   6.518340

atom: _________________________________________________________________________

<basis_specs>
N                    Z=   7    Mass=  14.010        Charge= 0.17977+309
Lmxo=1 Lmxkb= 3    BasisType=split      Semic=F
L=0  Nsemic=0  Cnfigmx=2
          i=1  nzeta=2  polorb=0  (2s)
            splnorm:   0.28000
               vcte:    0.0000
               rinn:    0.0000
               qcoe:    0.0000
               qyuk:    0.0000
               qwid:   0.10000E-01
                rcs:    0.0000      0.0000
            lambdas:    1.0000      1.0000
L=1  Nsemic=0  Cnfigmx=2
          i=1  nzeta=2  polorb=1  (2p)
            splnorm:   0.28000
               vcte:    0.0000
               rinn:    0.0000
               qcoe:    0.0000
               qyuk:    0.0000
               qwid:   0.10000E-01
                rcs:    0.0000      0.0000
            lambdas:    1.0000      1.0000
L=0  Nkbl=1  erefs: 0.17977+309
L=1  Nkbl=1  erefs: 0.17977+309
L=2  Nkbl=1  erefs: 0.17977+309
L=3  Nkbl=1  erefs: 0.17977+309
</basis_specs>

[...]

KBgen: Kleinman-Bylander projectors:
   l= 0   rc=  3.417763   el= -1.365098   Ekb= -4.433130   kbcos= -0.707855
   l= 1   rc=  3.375302   el= -0.521201   Ekb=-13.264039   kbcos= -0.535594
   l= 2   rc=  3.872880   el=  0.001991   Ekb= -0.641094   kbcos= -0.062456
   l= 3   rc=  3.970931   el=  0.003093   Ekb= -0.474517   kbcos= -0.018236

[...]

SPLIT: Basis orbitals for state 2p

[...]

POLgen: Polarization orbital for state 2p

[...]

atm_pop: Valence configuration (for local Pseudopot. screening):
 2s( 2.00)
 2p( 3.00)
Vna: chval, zval:    5.00000   5.00000

[...]

<basis_specs>
Si                   Z=  14    Mass=  28.090        Charge= 0.17977+309
Lmxo=1 Lmxkb= 3    BasisType=split      Semic=F
L=0  Nsemic=0  Cnfigmx=3
          i=1  nzeta=2  polorb=0  (3s)
            splnorm:   0.28000
               vcte:    0.0000
               rinn:    0.0000
               qcoe:    0.0000
               qyuk:    0.0000
               qwid:   0.10000E-01
                rcs:    0.0000      0.0000
            lambdas:    1.0000      1.0000
L=1  Nsemic=0  Cnfigmx=3
          i=1  nzeta=2  polorb=1  (3p)
            splnorm:   0.28000
               vcte:    0.0000
               rinn:    0.0000
               qcoe:    0.0000
               qyuk:    0.0000
               qwid:   0.10000E-01
                rcs:    0.0000      0.0000
            lambdas:    1.0000      1.0000
L=0  Nkbl=1  erefs: 0.17977+309
L=1  Nkbl=1  erefs: 0.17977+309
L=2  Nkbl=1  erefs: 0.17977+309
L=3  Nkbl=1  erefs: 0.17977+309
</basis_specs>

atom: Called for Si                    (Z =  14)

read_vps: Pseudopotential generation method:
read_vps: ATM4.2.7  Troullier-Martins
Valence charge for ps generation:    4.00000

xc_check: Exchange-correlation functional:
xc_check: GGA Perdew, Burke & Ernzerhof 1996
V l=0 = -2*Zval/r beyond r=  2.7826
V l=1 = -2*Zval/r beyond r=  2.7826
V l=2 = -2*Zval/r beyond r=  2.9253
V l=3 = -2*Zval/r beyond r=  2.7826
All V_l potentials equal beyond r=  2.8530
This should be close to max(r_c) in ps generation
All pots = -2*Zval/r beyond r=  2.9253

VLOCAL1: 99.0% of the norm of Vloc inside      5.333 Ry
VLOCAL1: 99.9% of the norm of Vloc inside     12.154 Ry
atom: Maximum radius for 4*pi*r*r*local-pseudopot. charge    3.39869
atom: Maximum radius for r*vlocal+2*Zval:    2.96205
GHOST: No ghost state for L =  0
GHOST: No ghost state for L =  1
GHOST: No ghost state for L =  2
GHOST: No ghost state for L =  3

KBgen: Kleinman-Bylander projectors:
   l= 0   rc=  3.075247   el= -0.794092   Ekb=  5.879390   kbcos=  0.167461
   l= 1   rc=  3.153101   el= -0.300068   Ekb=  2.642817   kbcos=  0.058301
   l= 2   rc=  3.273594   el=  0.001958   Ekb= -1.185135   kbcos= -0.104411
   l= 3   rc=  3.232927   el=  0.003046   Ekb= -0.497174   kbcos= -0.015889

KBgen: Total number of Kleinman-Bylander projectors:   16
atom: -------------------------------------------------------------------------

atom: SANKEY-TYPE ORBITALS:
atom: Selected multiple-zeta basis: split

[...]

SPLIT: Basis orbitals for state 3s

[...]

SPLIT: Orbitals with angular momentum L= 1

SPLIT: Basis orbitals for state 3p

SPLIT: PAO cut-off radius determined from an
SPLIT: energy shift=  0.002000 Ry

   izeta = 1
                 lambda =    1.000000
                     rc =    8.464845
                 energy =   -0.298236
                kinetic =    0.785360
    potential(screened) =   -1.083596
       potential(ionic) =   -3.273779

   izeta = 2
                 rmatch =    4.587816
              splitnorm =    0.280000
[...]
     spin moment: S , {S} =    0.00000  -0.00000   0.00000  -0.00000
   scf:    9    -1959.692531    -1959.692531    -1959.692531  0.000000 -3.741037  0.000001
     spin moment: S , {S} =    0.00000  -0.00000   0.00000  -0.00000
   scf:   10    -1959.692531    -1959.692531    -1959.692531  0.000000 -3.741037  0.000001
     spin moment: S , {S} =    0.00000  -0.00000   0.00000  -0.00000

[...]

cgvc: Finished line minimization   14.  Mean atomic displacement =    0.0003

[...]

        iscf     Eharris(eV)        E_KS(eV)     FreeEng(eV)     dDmax    Ef(eV) dHmax(eV)
   scf:    1    -1959.692891    -1959.692533    -1959.692533  0.000124 -3.740762  0.003085
     spin moment: S , {S} =    0.00000  -0.00000   0.00000  -0.00000
   scf:    2    -1959.692510    -1959.692527    -1959.692527  0.000206 -3.742758  0.010939
     spin moment: S , {S} =    0.00000  -0.00000   0.00000  -0.00000
   scf:    3    -1959.692535    -1959.692534    -1959.692534  0.000161 -3.741294  0.000520
     spin moment: S , {S} =    0.00000  -0.00000   0.00000  -0.00000
   scf:    4    -1959.692534    -1959.692534    -1959.692534  0.000004 -3.741326  0.000210
     spin moment: S , {S} =    0.00000  -0.00000   0.00000  -0.00000
   scf:    5    -1959.692534    -1959.692534    -1959.692534  0.000002 -3.741331  0.000047
     spin moment: S , {S} =    0.00000  -0.00000   0.00000  -0.00000
   scf:    6    -1959.692534    -1959.692534    -1959.692534  0.000001 -3.741335  0.000020
     spin moment: S , {S} =    0.00000  -0.00000   0.00000  -0.00000
   scf:    7    -1959.692534    -1959.692534    -1959.692534  0.000000 -3.741338  0.000007
     spin moment: S , {S} =    0.00000  -0.00000   0.00000  -0.00000
   scf:    8    -1959.692534    -1959.692534    -1959.692534  0.000000 -3.741339  0.000002
     spin moment: S , {S} =    0.00000  -0.00000   0.00000  -0.00000
   scf:    9    -1959.692534    -1959.692534    -1959.692534  0.000000 -3.741339  0.000001
     spin moment: S , {S} =    0.00000  -0.00000   0.00000  -0.00000

[...]

                        Begin CG opt. move =     32

outcoor: Atomic coordinates (Ang):
    2.46315851   -5.19921295   -0.00000000   1       1  H
    1.53554010   -4.69174449   -0.00000000   2       2  N
   -0.05609030   -5.52408710   -0.00000000   3       3  Si
    0.00000410   -7.01923201    0.00000000   1       4  H
   -1.49611119   -4.60498625    0.00000000   2       5  N
   -0.94359104   -2.88324895   -0.00000000   3       6  Si
   -1.28979062   -0.69238461    0.00000001   3       7  Si
   -2.82615282    0.16010171    0.00000000   2       8  N
   -2.87378880    1.21247611    0.00000000   1       9  H
   -3.75689478   -0.33235037   -0.00000000   1      10  H
    0.09887265    0.34342352   -0.00000000   2      11  N
    1.75278496   -0.11954481   -0.00000000   3      12  Si
    2.70878199    1.03908226    0.00000000   1      13  H
    2.52893094   -1.67740698   -0.00000000   2      14  N
    1.27270224   -2.87710973   -0.00000000   3      15  Si

outcell: Unit cell vectors (Ang):
       14.779133    0.000000    0.000000
        0.000000   16.638097    0.000000
        0.000000    0.000000    9.854683

outcell: Cell vector modules (Ang)   :   14.779133   16.638097    9.854683
outcell: Cell angles (23,13,12) (deg):     90.0000     90.0000     90.0000
outcell: Cell volume (Ang**3)        :   2423.2336
<dSpData1D:S at geom step 32
  <sparsity:sparsity for geom step 32
    nrows_g=155 nrows=48 sparsity=.3022 nnzs=7261, refcount: 8>
  <dData1D:(new from dSpData1D) n=7261, refcount: 1>
refcount: 1>
new_DM -- step:    33
Re-using DM from previous geometries...
Number of DMs in history: 1
 DM extrapolation coefficients:
1   1.00000
New DM after history re-use:
<dSpData2D:SpM extrapolated using coords
  <sparsity:sparsity for geom step 32
    nrows_g=155 nrows=48 sparsity=.3022 nnzs=7261, refcount: 10>
  <dData2D:(temp array for extrapolation) n=7261 m=8, refcount: 1>
refcount: 1>
     spin moment: S , {S} =    0.00000  -0.00000   0.00000  -0.00000
No. of atoms with KB's overlaping orbs in proc 0. Max # of overlaps:      15     133
New grid distribution:   1
           1       1:   90    1:   48    1:   30
           2       1:   90    1:   48   31:   60
           3       1:   90   49:   96    1:   30
           4       1:   90   49:   96   31:   60

InitMesh: MESH =   180 x   192 x   120 =     4147200
InitMesh: (bp) =    90 x    96 x    60 =      518400
InitMesh: Mesh cutoff (required, used) =   340.000   368.042 Ry
ExtMesh (bp) on 0 =   202 x   152 x   142 =     4359968
New grid distribution:   2
           1      26:   90    1:   75    1:   60
           2       1:   25    1:   75    1:   60
           3      23:   90   76:   96    1:   60
           4       1:   22   76:   96    1:   60
New grid distribution:   3
           1      35:   90    1:   62    1:   60
           2       1:   34    1:   62    1:   60
           3      36:   90   63:   96    1:   60
           4       1:   35   63:   96    1:   60
Setting up quadratic distribution...
ExtMesh (bp) on 0 =   177 x   179 x   172 =     5449476
PhiOnMesh: Number of (b)points on node 0 =               292500
PhiOnMesh: nlist on node 0 =              1756415

        iscf     Eharris(eV)        E_KS(eV)     FreeEng(eV)     dDmax    Ef(eV) dHmax(eV)
   scf:    1    -1959.692471    -1959.692534    -1959.692534  0.000022 -3.741387  0.000546
     spin moment: S , {S} =    0.00000  -0.00000   0.00000  -0.00000
   scf:    2    -1959.692534    -1959.692534    -1959.692534  0.000036 -3.741034  0.001935
     spin moment: S , {S} =    0.00000  -0.00000   0.00000  -0.00000
   scf:    3    -1959.692534    -1959.692534    -1959.692534  0.000029 -3.741293  0.000092
     spin moment: S , {S} =    0.00000  -0.00000   0.00000  -0.00000
   scf:    4    -1959.692534    -1959.692534    -1959.692534  0.000001 -3.741287  0.000037
     spin moment: S , {S} =    0.00000  -0.00000   0.00000  -0.00000
   scf:    5    -1959.692534    -1959.692534    -1959.692534  0.000000 -3.741287  0.000008
     spin moment: S , {S} =    0.00000  -0.00000   0.00000  -0.00000
   scf:    6    -1959.692534    -1959.692534    -1959.692534  0.000000 -3.741286  0.000004
     spin moment: S , {S} =    0.00000  -0.00000   0.00000  -0.00000
   scf:    7    -1959.692534    -1959.692534    -1959.692534  0.000000 -3.741285  0.000001
     spin moment: S , {S} =    0.00000  -0.00000   0.00000  -0.00000
   scf:    8    -1959.692534    -1959.692534    -1959.692534  0.000000 -3.741285  0.000000
     spin moment: S , {S} =    0.00000  -0.00000   0.00000  -0.00000

SCF Convergence by DM+H criterion
max |DM_out - DM_in|         :     0.0000000432
max |H_out - H_in|      (eV) :     0.0000002798
SCF cycle converged after 8 iterations

Using DM_out to compute the final energy and forces
No. of atoms with KB's overlaping orbs in proc 0. Max # of overlaps:      15     133

siesta: E_KS(eV) =            -1959.6925
     spin moment: S , {S} =    0.00000  -0.00000   0.00000  -0.00000

siesta: Atomic forces (eV/Ang):
     1    0.002255    0.001025    0.000000
     2    0.001911    0.002232    0.000000
     3   -0.001374    0.000783    0.000000
     4   -0.002120   -0.000432    0.000000
     5    0.000790   -0.004334    0.000000
     6    0.002269   -0.000806   -0.000000
     7   -0.000473   -0.001644    0.000000
     8   -0.000467    0.001365   -0.000000
     9   -0.001668    0.001563   -0.000000
    10    0.000221   -0.000716    0.000000
    11   -0.002071   -0.003045    0.000000
    12    0.001288    0.002188    0.000000
    13   -0.004466   -0.002510    0.000000
    14    0.001995    0.001542    0.000000
    15    0.000688    0.001643    0.000000
   Tot   -0.001222   -0.001145    0.000000
   Max    0.004466
   Res    0.001590    sqrt( Sum f_i^2 / 3N )
   Max    0.004466    constrained

Stress tensor Voigt[x,y,z,yz,xz,xy] (kbar):        0.29        0.27        0.02       -0.00        0.00        0.12
(Free)E + p*V (eV/cell)    -1959.9869
Target enthalpy (eV/cell)    -1959.6925

mulliken: Atomic and Orbital Populations:

[...]

Atom      Orb        Charge      Spin       Svec
    1  3 2Ppy       0.02754   0.00000      0.000  -0.000   0.000
    1  4 2Ppz       0.03915   0.00000     -0.000   0.000  -0.000
    1  5 2Ppx       0.02498   0.00000      0.000   0.000   0.000
    1     Total     0.78644   0.00000      0.000   0.000   0.000

[...]

   13  3 2Ppy       0.02423   0.00000      0.000   0.000   0.000
   13  4 2Ppz       0.01487   0.00000      0.000   0.000  -0.000
   13  5 2Ppx       0.01729   0.00000      0.000  -0.000   0.000
   13     Total     1.17454   0.00000      0.000  -0.000   0.000

[...]

Species: Si

Atom      Orb        Charge      Spin       Svec
    3  9 3Pdxy      0.10784   0.00000      0.000   0.000   0.000
    3 10 3Pdyz      0.05088   0.00000      0.000  -0.000   0.000
    3 11 3Pdz2      0.00988   0.00000     -0.000  -0.000  -0.000
    3 12 3Pdxz      0.13148   0.00000     -0.000   0.000  -0.000
    3 13 3Pdx2-y2   0.32257   0.00000      0.000  -0.000  -0.000
    3     Total     3.44653   0.00000      0.000  -0.000  -0.000

[...]

   12  9 3Pdxy      0.38906   0.00000      0.000   0.000   0.000
   12 10 3Pdyz      0.08103   0.00000     -0.000   0.000  -0.000
   12 11 3Pdz2      0.01066   0.00000      0.000   0.000   0.000
   12 12 3Pdxz      0.09307   0.00000      0.000   0.000  -0.000
   12 13 3Pdx2-y2   0.16561   0.00000     -0.000   0.000  -0.000
   12     Total     3.54334   0.00000     -0.000   0.000  -0.000

   15  3 3py       -0.03235   0.00000     -0.000  -0.000  -0.000
   15  9 3Pdxy      0.14207   0.00000     -0.000   0.000   0.000
   15 10 3Pdyz      0.12634   0.00000     -0.000   0.000   0.000
   15 11 3Pdz2      0.01380   0.00000      0.000   0.000   0.000
   15 12 3Pdxz      0.12351   0.00000     -0.000   0.000  -0.000
   15 13 3Pdx2-y2   0.30097   0.00000     -0.000   0.000  -0.000
   15     Total     3.61329   0.00000     -0.000   0.000  -0.000

Total              50.00000   0.00000     -0.000   0.000  -0.000

outcoor: Relaxed atomic coordinates (Ang):
    2.46315851   -5.19921295   -0.00000000   1       1  H
    1.53554010   -4.69174449   -0.00000000   2       2  N
   -0.05609030   -5.52408710   -0.00000000   3       3  Si
    0.00000410   -7.01923201    0.00000000   1       4  H
   -1.49611119   -4.60498625    0.00000000   2       5  N
   -0.94359104   -2.88324895   -0.00000000   3       6  Si
   -1.28979062   -0.69238461    0.00000001   3       7  Si
   -2.82615282    0.16010171    0.00000000   2       8  N
   -2.87378880    1.21247611    0.00000000   1       9  H
   -3.75689478   -0.33235037   -0.00000000   1      10  H
    0.09887265    0.34342352   -0.00000000   2      11  N
    1.75278496   -0.11954481   -0.00000000   3      12  Si
    2.70878199    1.03908226    0.00000000   1      13  H
    2.52893094   -1.67740698   -0.00000000   2      14  N
    1.27270224   -2.87710973   -0.00000000   3      15  Si

siesta: Eigenvalues (eV):
ik =     1
  -21.2849  -21.2849  -21.1548  -21.1548  -19.7727  -19.7727  -19.5101  -19.5101  -18.9823  -18.9823
  -13.9381  -13.9381  -13.1693  -13.1693  -12.8213  -12.8213  -12.4045  -12.4045  -11.9097  -11.9097
  -11.2579  -11.2579  -10.5000  -10.5000   -9.4669   -9.4669   -9.1256   -9.1256   -8.5416   -8.5416
   -8.4204   -8.4204   -8.2478   -8.2478   -7.6936   -7.6936   -7.6597   -7.6597   -7.0994   -7.0994
   -6.6802   -6.6802   -6.4353   -6.4353   -6.1071   -6.1071   -5.8904   -5.8904   -4.5446   -4.5446
   -2.4825   -2.4825   -2.3424   -2.3424   -2.0145   -2.0145   -1.9042   -1.9042   -1.6611   -1.6611
   -0.9313   -0.9313   -0.5506   -0.5506   -0.5043   -0.5043    0.2411    0.2411    0.3181    0.3181
    1.0104    1.0104    1.0217    1.0217    1.6157    1.6157    1.8772    1.8772    2.2033    2.2033
    2.5157    2.5157    2.5991    2.5991    2.7820    2.7820    2.8507    2.8507    3.5070    3.5070
    3.8157    3.8157    4.0376    4.0376    4.3857    4.3857    4.4057    4.4057    4.8049    4.8049
    4.9339    4.9339    5.5583    5.5583    5.6257    5.6257    5.8274    5.8274    6.0001    6.0001
    6.3207    6.3207    6.8310    6.8310    6.9198    6.9198    7.2352    7.2352    7.4367    7.4367
    7.6740    7.6740    8.0246    8.0246    8.0410    8.0410    8.6197    8.6197    8.6502    8.6502
    9.0738    9.0738    9.3833    9.3833    9.6091    9.6091    9.6212    9.6212   10.1412   10.1412
   10.6177   10.6177   11.0920   11.0920   11.2796   11.2796   11.4464   11.4464   12.1150   12.1150
   12.5247   12.5247   12.7683   12.7683   13.0096   13.0096   13.6333   13.6333   14.2434   14.2434
   14.4757   14.4757   14.8446   14.8446   16.1367   16.1367   16.5418   16.5418   17.0364   17.0364
   17.6444   17.6444   18.2746   18.2746   18.5180   18.5180   18.5364   18.5364   20.0043   20.0043
   20.7953   20.7953   20.9132   20.9132   21.9671   21.9671   22.6159   22.6159   22.8119   22.8119
   24.3962   24.3962   25.3474   25.3474   25.8517   25.8517   26.3651   26.3651   28.2186   28.2186
   29.5825   29.5825   30.2888   30.2888   30.5678   30.5678   30.6270   30.6270   31.0357   31.0357
   31.3880   31.3880   32.0689   32.0689   32.0801   32.0801   33.3572   33.3572   34.6059   34.6059
   35.8576   35.8576   36.9808   36.9808   37.3107   37.3107   37.3594   37.3594   38.2207   38.2207
   40.1749   40.1749   40.4840   40.4840   41.1335   41.1335   41.3552   41.3552   41.4511   41.4511
   43.0001   43.0001   43.6424   43.6424   44.2197   44.2197   44.4670   44.4670   44.9547   44.9547
   45.0330   45.0330   46.1691   46.1691   46.3477   46.3477   46.9162   46.9162   48.5626   48.5626
   50.0124   50.0124   50.3369   50.3369   51.6038   51.6038   53.7543   53.7543   54.7023   54.7023
   56.0164   56.0164   56.5995   56.5995   57.2877   57.2877   59.4336   59.4336   59.9766   59.9766
   60.9243   60.9243   61.3335   61.3335   61.8818   61.8818   65.3798   65.3798   66.8628   66.8628
   68.5387   68.5387   71.1865   71.1865   78.3937   78.3937   92.7032   92.7032   95.3076   95.3076
  100.1887  100.1887  102.7216  102.7216  113.0407  113.0407  122.8240  122.8240  140.0846  140.0846
siesta: Fermi energy =      -3.741285 eV

siesta: Program's energy decomposition (eV):
siesta: Ebs     =      -565.235946
siesta: Eions   =      1645.679058
siesta: Ena     =       215.231456
siesta: Ekin    =      1308.442528
siesta: Enl     =     -1325.105979
siesta: Eso     =        -0.002265
siesta: Edftu   =         0.000000
siesta: DEna    =        29.140882
siesta: DUscf   =         7.191618
siesta: DUext   =         0.000000
siesta: Exc     =      -548.911715
siesta: eta*DQ  =         0.000000
siesta: Emadel  =         0.000000
siesta: Emeta   =         0.000000
siesta: Emolmec =         0.000000
siesta: Ekinion =         0.000000
siesta: Eharris =     -1959.692534
siesta: Etot    =     -1959.692534
siesta: FreeEng =     -1959.692534

siesta: Final energy (eV):
siesta:  Band Struct. =    -565.235946
siesta:       Kinetic =    1308.442528
siesta:       Hartree =    3300.602577
siesta:       Edftu   =       0.000000
siesta:       Eso     =      -0.002265
siesta:    Ext. field =       0.000000
siesta:   Exch.-corr. =    -548.911715
siesta:  Ion-electron =   -7762.252378
siesta:       Ion-ion =    1742.428718
siesta:       Ekinion =       0.000000
siesta:         Total =   -1959.692534
siesta:         Fermi =      -3.741285

siesta: Stress tensor (static) (eV/Ang**3):
siesta:     0.000184    0.000076   -0.000000
siesta:     0.000076    0.000171   -0.000000
siesta:     0.000000   -0.000000    0.000010

siesta: Cell volume =       2423.233617 Ang**3

siesta: Pressure (static):
siesta:                Solid            Molecule  Units
siesta:          -0.00000132         -0.00000133  Ry/Bohr**3
siesta:          -0.00012146         -0.00012172  eV/Ang**3
siesta:          -0.19460185         -0.19501550  kBar
(Free)E+ p_basis*V_orbitals  =       -1949.010664
(Free)Eharris+ p_basis*V_orbitals  =       -1949.010664
     spin moment: S , {S} =    0.00000  -0.00000   0.00000  -0.00000

siesta: Electric dipole (a.u.)  =   -0.396298   -0.608895   -0.000000
siesta: Electric dipole (Debye) =   -1.007289   -1.547658   -0.000000

cite: Please see "Adenine.bib" for an exhaustive BiBTeX file.
cite: Please clearly indicate Siesta version in published work: v4.1.5-1-g384057250
cite: This calculation has made use of the following articles
cite: which are encouraged to be cited in a published work.
        Primary SIESTA paper
          DOI: www.doi.org/10.1088/0953-8984/14/11/302
        Spin-orbit coupling (on-site approximation)
          DOI: www.doi.org/10.1088/0953-8984/19/19/489001

WARNING: alloc-realloc-dealloc name mismatch
         Name: atomlist isa
         Node:     0
         Subsequent mismatches will not be reported
>> End of run:  12-MAY-2023  12:10:43
Job completed