>> Start of run:  12-MAY-2023  22:06:21

reinit: Reading from standard input
reinit: Dumped input in INPUT_TMP.20339
************************** Dump of input data file ****************************
# mpirun -np 4 siesta-4.1.5 < Guanine.fdf > Guanine.out
SystemLabel      Guanine
NumberOfAtoms    16
NumberOfSpecies  4
%block ChemicalSpeciesLabel
    1    8  O
    2    7  N
    3   14  Si
    4    1  H
%endblock ChemicalSpeciesLabel
# This overrides Defaults.fdf conf
MD.TypeOfRun                CG # CG, Verlet
MD.Steps                    0
AtomicCoordinatesFormat NotScaledCartesianAng
%block AtomicCoordinatesAndAtomicSpecies
    0.89499391    3.93962743   -0.00000000   1       1  O
   -3.11142040    0.86067020   -0.00000000   2       2  N
    1.96858488    1.21081697    0.00000000   2       3  N
    1.01996570   -1.79345982    0.00000000   2       4  N
   -2.11919273   -1.99118873   -0.00000000   2       5  N
    3.82538597   -1.07588459   -0.00000000   2       6  N
   -1.30586761    1.01306632    0.00000000   3       7  Si
   -0.55937368   -1.05926110   -0.00000000   3       8  Si
    0.49324909    2.38732630   -0.00000000   3       9  Si
    2.17336823   -0.53969473    0.00000000   3      10  Si
   -3.47599946   -0.80524044   -0.00000008   3      11  Si
    2.86459403    1.79153918    0.00000000   4      12  H
   -4.83748549   -1.43239859    0.00000000   4      13  H
    4.03501822   -2.10638793    0.00000000   4      14  H
    4.66096981   -0.44684999    0.00000000   4      15  H
   -2.23901898   -3.04469802   -0.00000000   4      16  H
%endblock AtomicCoordinatesAndAtomicSpecies
%include ../../Defaults.fdf
************************** End of input data file *****************************

reinit: -----------------------------------------------------------------------
reinit: System Name:
reinit: -----------------------------------------------------------------------
reinit: System Label: Guanine
reinit: -----------------------------------------------------------------------

initatom: Reading input for the pseudopotentials and atomic orbitals ----------
Species number:   1 Atomic number:    8 Label: O
Species number:   2 Atomic number:    7 Label: N
Species number:   3 Atomic number:   14 Label: Si
Species number:   4 Atomic number:    1 Label: H

Ground state valence configuration:   2s02  2p04
Reading pseudopotential information in formatted form from O.psf

Pseudopotential generated from a relativistic atomic calculation

Valence configuration for pseudopotential generation:
2s( 2.00) rc: 0.45
2p( 4.00) rc: 0.92
3d( 0.00) rc: 2.24
4f( 0.00) rc: 0.25
Ground state valence configuration:   2s02  2p03
Reading pseudopotential information in formatted form from N.psf

[...]

Valence configuration for pseudopotential generation:
2s( 2.00) rc: 0.94
2p( 3.00) rc: 0.59
3d( 0.00) rc: 3.46
4f( 0.00) rc: 2.47
Ground state valence configuration:   3s02  3p02
Reading pseudopotential information in formatted form from Si.psf

[...]

Valence configuration for pseudopotential generation:
3s( 2.00) rc: 1.67
3p( 2.00) rc: 2.04
3d( 0.00) rc: 2.89
4f( 0.00) rc: 2.49
Ground state valence configuration:   1s01
Reading pseudopotential information in formatted form from H.psf

Pseudopotential generated from a relativistic atomic calculation

Valence configuration for pseudopotential generation:
1s( 1.00) rc: 0.01
2p( 0.00) rc: 0.60
3d( 0.00) rc: 1.99
4f( 0.00) rc: 2.49
For O, standard SIESTA heuristics set lmxkb to 3
 (one more than the basis l, including polarization orbitals).
Use PS.lmax or PS.KBprojectors blocks to override.
For N, standard SIESTA heuristics set lmxkb to 3
 (one more than the basis l, including polarization orbitals).
Use PS.lmax or PS.KBprojectors blocks to override.
For Si, standard SIESTA heuristics set lmxkb to 3
 (one more than the basis l, including polarization orbitals).
Use PS.lmax or PS.KBprojectors blocks to override.
For H, standard SIESTA heuristics set lmxkb to 2
 (one more than the basis l, including polarization orbitals).
Use PS.lmax or PS.KBprojectors blocks to override.

<basis_specs>
O                    Z=   8    Mass=  16.000        Charge= 0.17977+309
Lmxo=1 Lmxkb= 3    BasisType=split      Semic=F
L=0  Nsemic=0  Cnfigmx=2
          i=1  nzeta=2  polorb=0  (2s)
            splnorm:   0.28000
               vcte:    0.0000
               rinn:    0.0000
               qcoe:    0.0000
               qyuk:    0.0000
               qwid:   0.10000E-01
                rcs:    0.0000      0.0000
            lambdas:    1.0000      1.0000
L=1  Nsemic=0  Cnfigmx=2
          i=1  nzeta=2  polorb=1  (2p)
            splnorm:   0.28000
               vcte:    0.0000
               rinn:    0.0000
               qcoe:    0.0000
               qyuk:    0.0000
               qwid:   0.10000E-01
                rcs:    0.0000      0.0000
            lambdas:    1.0000      1.0000
L=0  Nkbl=1  erefs: 0.17977+309
L=1  Nkbl=1  erefs: 0.17977+309
L=2  Nkbl=1  erefs: 0.17977+309
L=3  Nkbl=1  erefs: 0.17977+309
</basis_specs>

atom: Called for O                     (Z =   8)

read_vps: Pseudopotential generation method:
read_vps: ATM4.2.7  Troullier-Martins
Valence charge for ps generation:    6.00000

xc_check: Exchange-correlation functional:
xc_check: GGA Perdew, Burke & Ernzerhof 1996
V l=0 = -2*Zval/r beyond r=  1.1000
V l=1 = -2*Zval/r beyond r=  1.1000
V l=2 = -2*Zval/r beyond r=  2.2154
V l=3 = -2*Zval/r beyond r=  1.1000
All V_l potentials equal beyond r=  2.2154
This should be close to max(r_c) in ps generation
All pots = -2*Zval/r beyond r=  2.2154

VLOCAL1: 99.0% of the norm of Vloc inside      8.845 Ry
VLOCAL1: 99.9% of the norm of Vloc inside     20.157 Ry
atom: Maximum radius for 4*pi*r*r*local-pseudopot. charge    2.67231
atom: Maximum radius for r*vlocal+2*Zval:    2.32897
GHOST: No ghost state for L =  0
GHOST: No ghost state for L =  1
GHOST: No ghost state for L =  2
GHOST: No ghost state for L =  3

KBgen: Kleinman-Bylander projectors:
   l= 0   rc=  2.243238   el= -1.759686   Ekb=**********   kbcos= -0.171774
   l= 1   rc=  2.328968   el= -0.663873   Ekb=-14.506792   kbcos= -0.519897
   l= 2   rc=  2.573941   el=  0.002031   Ekb= -1.137373   kbcos= -0.019581
   l= 3   rc=  2.606321   el=  0.003153   Ekb= -1.013546   kbcos= -0.003122

KBgen: Total number of Kleinman-Bylander projectors:   16
atom: -------------------------------------------------------------------------

atom: SANKEY-TYPE ORBITALS:
atom: Selected multiple-zeta basis: split

SPLIT: Orbitals with angular momentum L= 0

SPLIT: Basis orbitals for state 2s

SPLIT: PAO cut-off radius determined from an
SPLIT: energy shift=  0.002000 Ry

   izeta = 1
                 lambda =    1.000000
                     rc =    4.243912
                 energy =   -1.758270
                kinetic =    3.286084
    potential(screened) =   -5.044353
       potential(ionic) =  -12.921184

   izeta = 2
                 rmatch =    2.187845
              splitnorm =    0.280000
                 energy =   -0.885018
                kinetic =    8.134434
    potential(screened) =   -9.019452
       potential(ionic) =  -17.710645

[...]

SPLIT: Basis orbitals for state 2p

[...]

POLgen: Perturbative polarization orbital with L=  2

POLgen: Polarization orbital for state 2p

   izeta = 1
                     rc =    5.314825
                 energy =    1.970580
                kinetic =    3.886128
    potential(screened) =   -1.915547
       potential(ionic) =   -7.749584
atom: Total number of Sankey-type orbitals: 13

atm_pop: Valence configuration (for local Pseudopot. screening):
 2s( 2.00)
 2p( 4.00)
Vna: chval, zval:    6.00000   6.00000

Vna:  Cut-off radius for the neutral-atom potential:   5.314825

atom: _________________________________________________________________________

[...]

KBgen: Kleinman-Bylander projectors:
   l= 0   rc=  3.417763   el= -1.365098   Ekb= -4.433130   kbcos= -0.707855
   l= 1   rc=  3.375302   el= -0.521201   Ekb=-13.264039   kbcos= -0.535594
   l= 2   rc=  3.872880   el=  0.001991   Ekb= -0.641094   kbcos= -0.062456
   l= 3   rc=  3.970931   el=  0.003093   Ekb= -0.474517   kbcos= -0.018236

[...]

<basis_specs>
Si                   Z=  14    Mass=  28.090        Charge= 0.17977+309
Lmxo=1 Lmxkb= 3    BasisType=split      Semic=F
L=0  Nsemic=0  Cnfigmx=3
          i=1  nzeta=2  polorb=0  (3s)
            splnorm:   0.28000
               vcte:    0.0000
               rinn:    0.0000
               qcoe:    0.0000
               qyuk:    0.0000
               qwid:   0.10000E-01
                rcs:    0.0000      0.0000
            lambdas:    1.0000      1.0000
L=1  Nsemic=0  Cnfigmx=3
          i=1  nzeta=2  polorb=1  (3p)
            splnorm:   0.28000
               vcte:    0.0000
               rinn:    0.0000
               qcoe:    0.0000
               qyuk:    0.0000
               qwid:   0.10000E-01
                rcs:    0.0000      0.0000
            lambdas:    1.0000      1.0000
L=0  Nkbl=1  erefs: 0.17977+309
L=1  Nkbl=1  erefs: 0.17977+309
L=2  Nkbl=1  erefs: 0.17977+309
L=3  Nkbl=1  erefs: 0.17977+309
</basis_specs>

[...]

KBgen: Kleinman-Bylander projectors:
   l= 0   rc=  3.075247   el= -0.794092   Ekb=  5.879390   kbcos=  0.167461
   l= 1   rc=  3.153101   el= -0.300068   Ekb=  2.642817   kbcos=  0.058301
   l= 2   rc=  3.273594   el=  0.001958   Ekb= -1.185135   kbcos= -0.104411
   l= 3   rc=  3.232927   el=  0.003046   Ekb= -0.497174   kbcos= -0.015889

[...]

SPLIT: Basis orbitals for state 3p

[...]

POLgen: Polarization orbital for state 3p

[...]

atm_pop: Valence configuration (for local Pseudopot. screening):
 3s( 2.00)
 3p( 2.00)
Vna: chval, zval:    4.00000   4.00000

[...]

<basis_specs>
H                    Z=   1    Mass=  1.0100        Charge= 0.17977+309
Lmxo=0 Lmxkb= 2    BasisType=split      Semic=F
L=0  Nsemic=0  Cnfigmx=1
          i=1  nzeta=2  polorb=1  (1s)
            splnorm:   0.62000
               vcte:    0.0000
               rinn:    0.0000
               qcoe:    0.0000
               qyuk:    0.0000
               qwid:   0.10000E-01
                rcs:    0.0000      0.0000
            lambdas:    1.0000      1.0000
L=0  Nkbl=1  erefs: 0.17977+309
L=1  Nkbl=1  erefs: 0.17977+309
L=2  Nkbl=1  erefs: 0.17977+309
</basis_specs>

atom: Called for H                     (Z =   1)

read_vps: Pseudopotential generation method:
read_vps: ATM4.2.7  Troullier-Martins
Valence charge for ps generation:    1.00000

xc_check: Exchange-correlation functional:
xc_check: GGA Perdew, Burke & Ernzerhof 1996
V l=0 = -2*Zval/r beyond r=  0.0098
V l=1 = -2*Zval/r beyond r=  0.5817
V l=2 = -2*Zval/r beyond r=  1.9372
All V_l potentials equal beyond r=  1.9372
This should be close to max(r_c) in ps generation
All pots = -2*Zval/r beyond r=  1.9372

VLOCAL1: 99.0% of the norm of Vloc inside     11.567 Ry
VLOCAL1: 99.9% of the norm of Vloc inside     26.362 Ry
atom: Maximum radius for 4*pi*r*r*local-pseudopot. charge    2.25106
atom: Maximum radius for r*vlocal+2*Zval:    1.91306
GHOST: No ghost state for L =  0
GHOST: No ghost state for L =  1
GHOST: No ghost state for L =  2

KBgen: Kleinman-Bylander projectors:
[...]
     spin moment: S , {S} =    0.00007  -0.00000  -0.00000   0.00007
   scf:    4    -2396.217680    -2395.799888    -2395.799888  0.021554 -3.404220  4.240512
     spin moment: S , {S} =    0.00004  -0.00000  -0.00000   0.00004
   scf:    5    -2396.319108    -2396.055754    -2396.055754  0.028983 -3.149217  1.570326
     spin moment: S , {S} =    0.00002  -0.00000   0.00000   0.00002
   scf:    6    -2396.215110    -2396.132732    -2396.132732  0.018089 -3.099756  0.480582
     spin moment: S , {S} =    0.00001   0.00000  -0.00000   0.00001
   scf:    7    -2396.185824    -2396.158265    -2396.158265  0.010519 -3.721243  0.203635
     spin moment: S , {S} =    0.00000   0.00000  -0.00000   0.00000
   scf:    8    -2396.176992    -2396.167201    -2396.167201  0.006959 -3.713289  0.102560
     spin moment: S , {S} =    0.00000   0.00000  -0.00000   0.00000
   scf:    9    -2396.179405    -2396.172862    -2396.172862  0.006762 -3.712891  0.078350
     spin moment: S , {S} =    0.00000   0.00000  -0.00000   0.00000
   scf:   10    -2396.182895    -2396.177106    -2396.177106  0.009598 -3.710663  0.046026
     spin moment: S , {S} =    0.00000   0.00000  -0.00000   0.00000
   scf:   11    -2396.179178    -2396.177992    -2396.177992  0.004802 -3.709986  0.027060
     spin moment: S , {S} =    0.00000   0.00000  -0.00000   0.00000
   scf:   12    -2396.178575    -2396.178251    -2396.178251  0.002611 -3.707980  0.018743
     spin moment: S , {S} =    0.00000   0.00000  -0.00000   0.00000
   scf:   13    -2396.178540    -2396.178377    -2396.178377  0.002072 -3.706628  0.012253
     spin moment: S , {S} =    0.00000   0.00000  -0.00000   0.00000
   scf:   14    -2396.178516    -2396.178435    -2396.178435  0.001643 -3.705801  0.006670
     spin moment: S , {S} =    0.00000   0.00000  -0.00000  -0.00000
   scf:   15    -2396.178480    -2396.178454    -2396.178454  0.000967 -3.706160  0.003315
     spin moment: S , {S} =    0.00000   0.00000  -0.00000  -0.00000
   scf:   16    -2396.178468    -2396.178460    -2396.178460  0.000582 -3.706184  0.002073
     spin moment: S , {S} =    0.00000   0.00000   0.00000  -0.00000
   scf:   17    -2396.178463    -2396.178461    -2396.178461  0.000210 -3.706159  0.001430
     spin moment: S , {S} =    0.00000   0.00000   0.00000  -0.00000
   scf:   18    -2396.178463    -2396.178462    -2396.178462  0.000156 -3.706097  0.000771
     spin moment: S , {S} =    0.00000   0.00000   0.00000  -0.00000
   scf:   19    -2396.178462    -2396.178462    -2396.178462  0.000051 -3.706029  0.000431
     spin moment: S , {S} =    0.00000  -0.00000   0.00000  -0.00000
   scf:   20    -2396.178462    -2396.178462    -2396.178462  0.000038 -3.705995  0.000197
     spin moment: S , {S} =    0.00000  -0.00000   0.00000  -0.00000
   scf:   21    -2396.178462    -2396.178462    -2396.178462  0.000018 -3.705978  0.000140
     spin moment: S , {S} =    0.00000   0.00000   0.00000  -0.00000
   scf:   22    -2396.178462    -2396.178462    -2396.178462  0.000009 -3.705978  0.000075
     spin moment: S , {S} =    0.00000   0.00000   0.00000   0.00000
   scf:   23    -2396.178462    -2396.178462    -2396.178462  0.000005 -3.705977  0.000032
     spin moment: S , {S} =    0.00000  -0.00000   0.00000   0.00000
   scf:   24    -2396.178462    -2396.178462    -2396.178462  0.000002 -3.705976  0.000025
     spin moment: S , {S} =    0.00000  -0.00000   0.00000   0.00000
mix: Pulay -- resetting history
   scf:   25    -2396.178462    -2396.178462    -2396.178462  0.000002 -3.705975  0.000021
     spin moment: S , {S} =    0.00000  -0.00000   0.00000   0.00000
   scf:   26    -2396.178462    -2396.178462    -2396.178462  0.000003 -3.705974  0.000009
     spin moment: S , {S} =    0.00000  -0.00000   0.00000  -0.00000
   scf:   27    -2396.178462    -2396.178462    -2396.178462  0.000001 -3.705974  0.000004
     spin moment: S , {S} =    0.00000  -0.00000   0.00000  -0.00000
   scf:   28    -2396.178462    -2396.178462    -2396.178462  0.000001 -3.705974  0.000002
     spin moment: S , {S} =    0.00000  -0.00000   0.00000  -0.00000
   scf:   29    -2396.178462    -2396.178462    -2396.178462  0.000000 -3.705974  0.000001
     spin moment: S , {S} =    0.00000  -0.00000   0.00000  -0.00000
   scf:   30    -2396.178462    -2396.178462    -2396.178462  0.000000 -3.705974  0.000001
     spin moment: S , {S} =    0.00000  -0.00000   0.00000  -0.00000

SCF Convergence by DM+H criterion
max |DM_out - DM_in|         :     0.0000001302
max |H_out - H_in|      (eV) :     0.0000005934
SCF cycle converged after 30 iterations

Using DM_out to compute the final energy and forces
No. of atoms with KB's overlaping orbs in proc 0. Max # of overlaps:      16     142

siesta: E_KS(eV) =            -2396.1785

siesta: E_KS - E_eggbox =     -2396.1785
     spin moment: S , {S} =    0.00000  -0.00000   0.00000  -0.00000

siesta: Atomic forces (eV/Ang):
     1    2.132639   -2.413235    0.000000
     2   -0.005420    0.000281   -0.000000
     3    0.006419   -0.000645    0.000000
     4    0.024070    0.004301    0.000000
     5    0.003063    0.010467   -0.000000
     6   -0.001659   -0.011001    0.000000
     7    0.001162    0.004034    0.000000
     8   -0.000449    0.000867    0.000000
     9   -0.004045   -0.000710   -0.000000
    10    0.001780    0.001109   -0.000000
    11    0.001925    0.000789    0.000000
    12   -0.204889   -0.027387   -0.000000
    13    0.009275    0.086035   -0.000000
    14   -0.035207   -0.030290   -0.000000
    15    0.178209    0.084829    0.000000
    16    0.004994    0.184966   -0.000000
   Tot    2.111869   -2.105590    0.000000
   Max    2.413235
   Res    0.467671    sqrt( Sum f_i^2 / 3N )
   Max    2.413235    constrained

Stress tensor Voigt[x,y,z,yz,xz,xy] (kbar):        0.01        1.23       -0.09       -0.00       -0.00        0.54
(Free)E + p*V (eV/cell)    -2396.8095
Target enthalpy (eV/cell)    -2396.1785

mulliken: Atomic and Orbital Populations:

Species: O

Atom      Orb        Charge      Spin       Svec
    1  7 2pz       -0.00254   0.00000      0.000  -0.000   0.000
    1  9 3Pdxy      0.00757   0.00000      0.000  -0.000   0.000
    1 10 3Pdyz      0.00956   0.00000     -0.000   0.000   0.000
    1 11 3Pdz2      0.00172   0.00000     -0.000  -0.000   0.000
    1 12 3Pdxz      0.00043   0.00000      0.000  -0.000   0.000
    1 13 3Pdx2-y2   0.00718   0.00000     -0.000  -0.000   0.000
    1     Total     6.46674   0.00000      0.000   0.000  -0.000

Total               6.46674   0.00000      0.000   0.000  -0.000

[...]

Atom      Orb        Charge      Spin       Svec
    2  9 3Pdxy      0.00841   0.00000     -0.000   0.000   0.000
    2 10 3Pdyz      0.01078   0.00000      0.000  -0.000  -0.000
    2 11 3Pdz2      0.00196   0.00000     -0.000  -0.000   0.000
    2 12 3Pdxz      0.00751   0.00000     -0.000   0.000  -0.000
    2 13 3Pdx2-y2   0.00891   0.00000      0.000  -0.000   0.000
    2     Total     5.37186   0.00000      0.000  -0.000   0.000

    3  9 3Pdxy      0.00438   0.00000     -0.000  -0.000   0.000
    3 10 3Pdyz      0.00420   0.00000     -0.000  -0.000   0.000
    3 11 3Pdz2      0.00084   0.00000     -0.000   0.000   0.000
    3 12 3Pdxz      0.00271   0.00000     -0.000   0.000   0.000
    3 13 3Pdx2-y2   0.00310   0.00000     -0.000   0.000  -0.000
    3     Total     5.53706   0.00000      0.000   0.000  -0.000

[...]

Atom      Orb        Charge      Spin       Svec
    7  9 3Pdxy      0.24303   0.00000     -0.000   0.000   0.000
    7 10 3Pdyz      0.03042   0.00000      0.000  -0.000   0.000
    7 11 3Pdz2      0.01208   0.00000     -0.000  -0.000   0.000
    7 12 3Pdxz      0.13913   0.00000      0.000  -0.000   0.000
    7 13 3Pdx2-y2   0.11300   0.00000     -0.000   0.000   0.000
    7     Total     3.84821   0.00000     -0.000  -0.000   0.000

    8  5 3px       -0.03250   0.00000     -0.000  -0.000   0.000
    8  9 3Pdxy      0.25833   0.00000     -0.000   0.000   0.000
    8 10 3Pdyz      0.10996   0.00000      0.000   0.000  -0.000
    8 11 3Pdz2      0.01321   0.00000     -0.000  -0.000  -0.000
    8 12 3Pdxz      0.15541   0.00000      0.000   0.000   0.000
    8 13 3Pdx2-y2   0.18797   0.00000      0.000  -0.000  -0.000
    8     Total     3.64664   0.00000      0.000  -0.000   0.000

[...]

   11  9 3Pdxy      0.24340   0.00000      0.000  -0.000   0.000
   11 10 3Pdyz      0.12473   0.00000      0.000   0.000  -0.000
   11 11 3Pdz2      0.00935   0.00000     -0.000   0.000   0.000
   11 12 3Pdxz      0.05250   0.00000     -0.000   0.000  -0.000
   11 13 3Pdx2-y2   0.18402   0.00000      0.000  -0.000  -0.000
   11     Total     3.44927   0.00000     -0.000   0.000  -0.000

[...]

Species: H

Atom      Orb        Charge      Spin       Svec
   12  3 2Ppy       0.02918   0.00000     -0.000  -0.000  -0.000
   12  4 2Ppz       0.03702   0.00000      0.000  -0.000  -0.000
   12  5 2Ppx       0.02358   0.00000     -0.000  -0.000  -0.000
   12     Total     0.77219   0.00000     -0.000  -0.000  -0.000

   13  3 2Ppy       0.01990   0.00000     -0.000   0.000  -0.000
   13  4 2Ppz       0.02006   0.00000      0.000  -0.000  -0.000
   13  5 2Ppx       0.03315   0.00000     -0.000   0.000   0.000
   13     Total     1.18837   0.00000      0.000  -0.000  -0.000

[...]

   16  3 2Ppy       0.02997   0.00000      0.000  -0.000  -0.000
   16  4 2Ppz       0.03830   0.00000      0.000  -0.000   0.000
   16  5 2Ppx       0.02264   0.00000     -0.000  -0.000  -0.000
   16     Total     0.78237   0.00000      0.000   0.000  -0.000

Total              56.00000   0.00000     -0.000   0.000  -0.000

siesta: Eigenvalues (eV):
ik =     1
  -22.0674  -22.0674  -21.9030  -21.9030  -21.3904  -21.3904  -20.9989  -20.9989  -19.9891  -19.9891
  -19.4806  -19.4806  -14.0234  -14.0234  -13.3133  -13.3133  -13.2416  -13.2416  -13.0306  -13.0306
  -12.6328  -12.6328  -11.6073  -11.6073  -10.8638  -10.8638  -10.8077  -10.8077   -9.3101   -9.3101
   -9.0835   -9.0835   -8.8843   -8.8843   -8.7612   -8.7612   -8.3201   -8.3201   -7.8827   -7.8827
   -7.5393   -7.5393   -7.4349   -7.4349   -6.9894   -6.9894   -6.6605   -6.6605   -6.4030   -6.4030
   -6.2994   -6.2994   -5.9958   -5.9958   -4.4964   -4.4964   -2.5042   -2.5042   -2.4390   -2.4390
   -2.0822   -2.0822   -1.9821   -1.9821   -1.6646   -1.6646   -1.3695   -1.3695   -0.9326   -0.9326
   -0.5839   -0.5839    0.1643    0.1643    0.1978    0.1978    0.4659    0.4659    0.6105    0.6105
    1.1926    1.1926    1.2999    1.2999    1.5455    1.5455    2.2166    2.2166    2.5526    2.5526
    2.5917    2.5917    2.9085    2.9085    3.1809    3.1809    3.6529    3.6529    3.7637    3.7637
    4.1863    4.1863    4.4295    4.4295    4.5730    4.5730    4.9303    4.9303    5.1103    5.1103
    5.4211    5.4211    5.4653    5.4653    5.7419    5.7419    5.8241    5.8241    6.1963    6.1963
    6.4578    6.4578    7.0240    7.0240    7.1322    7.1322    7.3456    7.3456    7.6686    7.6686
    8.0671    8.0671    8.4503    8.4503    8.5010    8.5010    8.5462    8.5462    9.0254    9.0254
    9.1064    9.1064    9.6276    9.6276    9.6612    9.6612   10.2383   10.2383   10.6810   10.6810
   10.6907   10.6907   10.8590   10.8590   11.7635   11.7635   11.8371   11.8371   11.9263   11.9263
   12.2121   12.2121   12.2521   12.2521   13.2403   13.2403   13.5691   13.5691   13.9150   13.9150
   13.9785   13.9785   14.5393   14.5393   15.6941   15.6941   16.0413   16.0413   16.8196   16.8196
   18.0537   18.0537   18.2271   18.2271   18.3837   18.3837   19.1012   19.1012   19.9306   19.9306
   21.6975   21.6975   22.4288   22.4288   22.9835   22.9835   23.4422   23.4422   23.8137   23.8137
   24.6834   24.6834   26.7891   26.7891   28.6830   28.6830   29.3252   29.3252   29.5746   29.5746
   29.9030   29.9030   30.1695   30.1695   30.5921   30.5921   30.7287   30.7287   30.8711   30.8711
   32.2262   32.2262   33.9586   33.9586   34.1383   34.1383   34.7317   34.7317   35.0546   35.0546
   35.2825   35.2825   36.4777   36.4777   36.7750   36.7750   37.1626   37.1626   37.4171   37.4171
   38.0910   38.0910   39.2473   39.2473   39.7937   39.7937   40.6037   40.6037   40.7304   40.7304
   41.0041   41.0041   41.2361   41.2361   42.7891   42.7891   43.0818   43.0818   43.8209   43.8209
   43.8672   43.8672   44.5265   44.5265   44.5848   44.5848   45.1936   45.1936   46.1527   46.1527
   46.6545   46.6545   47.2698   47.2698   49.0396   49.0396   49.2097   49.2097   50.2437   50.2437
   50.7769   50.7769   51.1234   51.1234   52.3783   52.3783   54.6605   54.6605   54.7430   54.7430
   55.6238   55.6238   56.3105   56.3105   58.0206   58.0206   58.5883   58.5883   60.1020   60.1020
   60.7866   60.7866   61.3126   61.3126   62.0268   62.0268   64.1494   64.1494   66.9973   66.9973
   67.0697   67.0697   68.5534   68.5534   70.5465   70.5465   73.2581   73.2581   89.9482   89.9482
   93.2634   93.2634   98.1342   98.1342  103.1031  103.1031  103.3685  103.3685  110.2597  110.2597
  123.7549  123.7549  130.6491  130.6491  140.9471  140.9471
siesta: Fermi energy =      -3.705974 eV

siesta: Program's energy decomposition (eV):
siesta: Ebs     =      -658.820516
siesta: Eions   =      2040.955082
siesta: Ena     =       223.142245
siesta: Ekin    =      1678.826444
siesta: Enl     =     -1651.030711
siesta: Eso     =        -0.002376
siesta: Edftu   =         0.000000
siesta: DEna    =        30.607265
siesta: DUscf   =         8.035249
siesta: DUext   =         0.000000
siesta: Exc     =      -644.801495
siesta: eta*DQ  =         0.000000
siesta: Emadel  =         0.000000
siesta: Emeta   =         0.000000
siesta: Emolmec =         0.000000
siesta: Ekinion =         0.000000
siesta: Eharris =     -2396.178462
siesta: Etot    =     -2396.178462
siesta: FreeEng =     -2396.178462

siesta: Final energy (eV):
siesta:  Band Struct. =    -658.820516
siesta:       Kinetic =    1678.826444
siesta:       Hartree =    4059.863930
siesta:       Edftu   =       0.000000
siesta:       Eso     =      -0.002376
siesta:    Ext. field =       0.000000
siesta:   Exch.-corr. =    -644.801495
siesta:  Ion-electron =   -9620.199546
siesta:       Ion-ion =    2130.134581
siesta:       Ekinion =       0.000000
siesta:         Total =   -2396.178462
siesta:         Fermi =      -3.705974

siesta: Atomic forces (eV/Ang):
siesta:      1    2.132639   -2.413235    0.000000
siesta:      2   -0.005420    0.000281   -0.000000
siesta:      3    0.006419   -0.000645    0.000000
siesta:      4    0.024070    0.004301    0.000000
siesta:      5    0.003063    0.010467   -0.000000
siesta:      6   -0.001659   -0.011001    0.000000
siesta:      7    0.001162    0.004034    0.000000
siesta:      8   -0.000449    0.000867    0.000000
siesta:      9   -0.004045   -0.000710   -0.000000
siesta:     10    0.001780    0.001109   -0.000000
siesta:     11    0.001925    0.000789    0.000000
siesta:     12   -0.204889   -0.027387   -0.000000
siesta:     13    0.009275    0.086035   -0.000000
siesta:     14   -0.035207   -0.030290   -0.000000
siesta:     15    0.178209    0.084829    0.000000
siesta:     16    0.004994    0.184966   -0.000000
siesta: ----------------------------------------
siesta:    Tot    2.111869   -2.105590    0.000000

siesta: Stress tensor (static) (eV/Ang**3):
siesta:     0.000009    0.000339    0.000000
siesta:     0.000339    0.000770   -0.000000
siesta:    -0.000000   -0.000000   -0.000054

siesta: Cell volume =       2612.334160 Ang**3

siesta: Pressure (static):
siesta:                Solid            Molecule  Units
siesta:          -0.00000263          0.00001018  Ry/Bohr**3
siesta:          -0.00024157          0.00093455  eV/Ang**3
siesta:          -0.38704066          1.49733552  kBar
(Free)E+ p_basis*V_orbitals  =       -2385.188786
(Free)Eharris+ p_basis*V_orbitals  =       -2385.188786
     spin moment: S , {S} =    0.00000  -0.00000   0.00000  -0.00000

siesta: Electric dipole (a.u.)  =    1.115868   -3.168423   -0.000000
siesta: Electric dipole (Debye) =    2.836255   -8.053333   -0.000000

cite: Please see "Guanine.bib" for an exhaustive BiBTeX file.
cite: Please clearly indicate Siesta version in published work: v4.1.5-1-g384057250
cite: This calculation has made use of the following articles
cite: which are encouraged to be cited in a published work.
        Primary SIESTA paper
          DOI: www.doi.org/10.1088/0953-8984/14/11/302
        Spin-orbit coupling (on-site approximation)
          DOI: www.doi.org/10.1088/0953-8984/19/19/489001

WARNING: alloc-realloc-dealloc name mismatch
         Name: atomlist isa
         Node:     0
         Subsequent mismatches will not be reported
>> End of run:  12-MAY-2023  22:11:31
Job completed