>> Start of run:   1-JUN-2023  12:23:05

reinit: Reading from standard input
reinit: Dumped input in INPUT_TMP.51550
************************** Dump of input data file ****************************
# mpirun -np 4 siesta-4.1.5 < Guanine.fdf > Guanine.out
SystemLabel      Guanine
NumberOfAtoms    16
NumberOfSpecies  4
%block ChemicalSpeciesLabel
    1    8  O
    2    7  N
    3   14  Si
    4    1  H
%endblock ChemicalSpeciesLabel
# This overrides Defaults.fdf conf
MD.TypeOfRun                CG # CG, Verlet
MD.Steps                    0
AtomicCoordinatesFormat NotScaledCartesianAng
%block AtomicCoordinatesAndAtomicSpecies
    0.89499391    3.93962743   -0.00000000   1       1  O
   -3.11142040    0.86067020   -0.00000000   2       2  N
    1.96858488    1.21081697    0.00000000   2       3  N
    1.01996570   -1.79345982    0.00000000   2       4  N
   -2.11919273   -1.99118873   -0.00000000   2       5  N
    3.82538597   -1.07588459   -0.00000000   2       6  N
   -1.30586761    1.01306632    0.00000000   3       7  Si
   -0.55937368   -1.05926110   -0.00000000   3       8  Si
    0.49324909    2.38732630   -0.00000000   3       9  Si
    2.17336823   -0.53969473    0.00000000   3      10  Si
   -3.47599946   -0.80524044   -0.00000008   3      11  Si
    2.86459403    1.79153918    0.00000000   4      12  H
   -4.83748549   -1.43239859    0.00000000   4      13  H
    4.03501822   -2.10638793    0.00000000   4      14  H
    4.66096981   -0.44684999    0.00000000   4      15  H
   -2.23901898   -3.04469802   -0.00000000   4      16  H
%endblock AtomicCoordinatesAndAtomicSpecies
# Lattice
LatticeConstant 1.0 Ang
%block LatticeVectors
    17.917409    0.000000    0.000000
    0.000000   14.516648    0.000000
    0.000000    0.000000    9.854683
%endblock LatticeVectors
%include ../../Defaults.fdf
************************** End of input data file *****************************

reinit: -----------------------------------------------------------------------
reinit: System Name:
reinit: -----------------------------------------------------------------------
reinit: System Label: Guanine
reinit: -----------------------------------------------------------------------

initatom: Reading input for the pseudopotentials and atomic orbitals ----------
Species number:   1 Atomic number:    8 Label: O
Species number:   2 Atomic number:    7 Label: N
Species number:   3 Atomic number:   14 Label: Si
Species number:   4 Atomic number:    1 Label: H

Ground state valence configuration:   2s02  2p04
Reading pseudopotential information in formatted form from O.psf

Pseudopotential generated from a relativistic atomic calculation

Valence configuration for pseudopotential generation:
2s( 2.00) rc: 0.45
2p( 4.00) rc: 0.92
3d( 0.00) rc: 2.24
4f( 0.00) rc: 0.25
Ground state valence configuration:   2s02  2p03
Reading pseudopotential information in formatted form from N.psf

[...]

Valence configuration for pseudopotential generation:
2s( 2.00) rc: 0.94
2p( 3.00) rc: 0.59
3d( 0.00) rc: 3.46
4f( 0.00) rc: 2.47
Ground state valence configuration:   3s02  3p02
Reading pseudopotential information in formatted form from Si.psf

[...]

Valence configuration for pseudopotential generation:
3s( 2.00) rc: 1.67
3p( 2.00) rc: 2.04
3d( 0.00) rc: 2.89
4f( 0.00) rc: 2.49
Ground state valence configuration:   1s01
Reading pseudopotential information in formatted form from H.psf

Pseudopotential generated from a relativistic atomic calculation

Valence configuration for pseudopotential generation:
1s( 1.00) rc: 0.01
2p( 0.00) rc: 0.60
3d( 0.00) rc: 1.99
4f( 0.00) rc: 2.49
For O, standard SIESTA heuristics set lmxkb to 3
 (one more than the basis l, including polarization orbitals).
Use PS.lmax or PS.KBprojectors blocks to override.
For N, standard SIESTA heuristics set lmxkb to 3
 (one more than the basis l, including polarization orbitals).
Use PS.lmax or PS.KBprojectors blocks to override.
For Si, standard SIESTA heuristics set lmxkb to 3
 (one more than the basis l, including polarization orbitals).
Use PS.lmax or PS.KBprojectors blocks to override.
For H, standard SIESTA heuristics set lmxkb to 2
 (one more than the basis l, including polarization orbitals).
Use PS.lmax or PS.KBprojectors blocks to override.

<basis_specs>
O                    Z=   8    Mass=  16.000        Charge= 0.17977+309
Lmxo=1 Lmxkb= 3    BasisType=split      Semic=F
L=0  Nsemic=0  Cnfigmx=2
          i=1  nzeta=2  polorb=0  (2s)
            splnorm:   0.28000
               vcte:    0.0000
               rinn:    0.0000
               qcoe:    0.0000
               qyuk:    0.0000
               qwid:   0.10000E-01
                rcs:    0.0000      0.0000
            lambdas:    1.0000      1.0000
L=1  Nsemic=0  Cnfigmx=2
          i=1  nzeta=2  polorb=1  (2p)
            splnorm:   0.28000
               vcte:    0.0000
               rinn:    0.0000
               qcoe:    0.0000
               qyuk:    0.0000
               qwid:   0.10000E-01
                rcs:    0.0000      0.0000
            lambdas:    1.0000      1.0000
L=0  Nkbl=1  erefs: 0.17977+309
L=1  Nkbl=1  erefs: 0.17977+309
L=2  Nkbl=1  erefs: 0.17977+309
L=3  Nkbl=1  erefs: 0.17977+309
</basis_specs>

atom: Called for O                     (Z =   8)

read_vps: Pseudopotential generation method:
read_vps: ATM4.2.7  Troullier-Martins
Valence charge for ps generation:    6.00000

xc_check: Exchange-correlation functional:
xc_check: GGA Perdew, Burke & Ernzerhof 1996
V l=0 = -2*Zval/r beyond r=  1.1000
V l=1 = -2*Zval/r beyond r=  1.1000
V l=2 = -2*Zval/r beyond r=  2.2154
V l=3 = -2*Zval/r beyond r=  1.1000
All V_l potentials equal beyond r=  2.2154
This should be close to max(r_c) in ps generation
All pots = -2*Zval/r beyond r=  2.2154

VLOCAL1: 99.0% of the norm of Vloc inside      8.845 Ry
VLOCAL1: 99.9% of the norm of Vloc inside     20.157 Ry
atom: Maximum radius for 4*pi*r*r*local-pseudopot. charge    2.67231
atom: Maximum radius for r*vlocal+2*Zval:    2.32897
GHOST: No ghost state for L =  0
GHOST: No ghost state for L =  1
GHOST: No ghost state for L =  2
GHOST: No ghost state for L =  3

KBgen: Kleinman-Bylander projectors:
   l= 0   rc=  2.243238   el= -1.759686   Ekb=**********   kbcos= -0.171774
   l= 1   rc=  2.328968   el= -0.663873   Ekb=-14.506792   kbcos= -0.519897
   l= 2   rc=  2.573941   el=  0.002031   Ekb= -1.137373   kbcos= -0.019581
   l= 3   rc=  2.606321   el=  0.003153   Ekb= -1.013546   kbcos= -0.003122

KBgen: Total number of Kleinman-Bylander projectors:   16
atom: -------------------------------------------------------------------------

atom: SANKEY-TYPE ORBITALS:
atom: Selected multiple-zeta basis: split

SPLIT: Orbitals with angular momentum L= 0

SPLIT: Basis orbitals for state 2s

SPLIT: PAO cut-off radius determined from an
SPLIT: energy shift=  0.002000 Ry

   izeta = 1
                 lambda =    1.000000
                     rc =    4.243912
                 energy =   -1.758270
                kinetic =    3.286084
    potential(screened) =   -5.044353
       potential(ionic) =  -12.921184

   izeta = 2
                 rmatch =    2.187845
              splitnorm =    0.280000
                 energy =   -0.885018
                kinetic =    8.134434
    potential(screened) =   -9.019452
       potential(ionic) =  -17.710645

[...]

SPLIT: Basis orbitals for state 2p

[...]

POLgen: Perturbative polarization orbital with L=  2

POLgen: Polarization orbital for state 2p

   izeta = 1
                     rc =    5.314825
                 energy =    1.970580
                kinetic =    3.886128
    potential(screened) =   -1.915547
       potential(ionic) =   -7.749584
atom: Total number of Sankey-type orbitals: 13

atm_pop: Valence configuration (for local Pseudopot. screening):
 2s( 2.00)
 2p( 4.00)
Vna: chval, zval:    6.00000   6.00000

Vna:  Cut-off radius for the neutral-atom potential:   5.314825

atom: _________________________________________________________________________

[...]

KBgen: Kleinman-Bylander projectors:
   l= 0   rc=  3.417763   el= -1.365098   Ekb= -4.433130   kbcos= -0.707855
   l= 1   rc=  3.375302   el= -0.521201   Ekb=-13.264039   kbcos= -0.535594
   l= 2   rc=  3.872880   el=  0.001991   Ekb= -0.641094   kbcos= -0.062456
   l= 3   rc=  3.970931   el=  0.003093   Ekb= -0.474517   kbcos= -0.018236

[...]

<basis_specs>
Si                   Z=  14    Mass=  28.090        Charge= 0.17977+309
Lmxo=1 Lmxkb= 3    BasisType=split      Semic=F
L=0  Nsemic=0  Cnfigmx=3
          i=1  nzeta=2  polorb=0  (3s)
            splnorm:   0.28000
               vcte:    0.0000
               rinn:    0.0000
               qcoe:    0.0000
               qyuk:    0.0000
               qwid:   0.10000E-01
                rcs:    0.0000      0.0000
            lambdas:    1.0000      1.0000
L=1  Nsemic=0  Cnfigmx=3
          i=1  nzeta=2  polorb=1  (3p)
            splnorm:   0.28000
               vcte:    0.0000
               rinn:    0.0000
               qcoe:    0.0000
               qyuk:    0.0000
               qwid:   0.10000E-01
                rcs:    0.0000      0.0000
            lambdas:    1.0000      1.0000
L=0  Nkbl=1  erefs: 0.17977+309
L=1  Nkbl=1  erefs: 0.17977+309
L=2  Nkbl=1  erefs: 0.17977+309
L=3  Nkbl=1  erefs: 0.17977+309
</basis_specs>

[...]

KBgen: Kleinman-Bylander projectors:
   l= 0   rc=  3.075247   el= -0.794092   Ekb=  5.879390   kbcos=  0.167461
   l= 1   rc=  3.153101   el= -0.300068   Ekb=  2.642817   kbcos=  0.058301
   l= 2   rc=  3.273594   el=  0.001958   Ekb= -1.185135   kbcos= -0.104411
   l= 3   rc=  3.232927   el=  0.003046   Ekb= -0.497174   kbcos= -0.015889

[...]

SPLIT: Basis orbitals for state 3p

[...]

POLgen: Polarization orbital for state 3p

[...]

atm_pop: Valence configuration (for local Pseudopot. screening):
 3s( 2.00)
 3p( 2.00)
Vna: chval, zval:    4.00000   4.00000

[...]

<basis_specs>
H                    Z=   1    Mass=  1.0100        Charge= 0.17977+309
Lmxo=0 Lmxkb= 2    BasisType=split      Semic=F
L=0  Nsemic=0  Cnfigmx=1
          i=1  nzeta=2  polorb=1  (1s)
            splnorm:   0.62000
               vcte:    0.0000
               rinn:    0.0000
               qcoe:    0.0000
               qyuk:    0.0000
               qwid:   0.10000E-01
                rcs:    0.0000      0.0000
            lambdas:    1.0000      1.0000
L=0  Nkbl=1  erefs: 0.17977+309
L=1  Nkbl=1  erefs: 0.17977+309
L=2  Nkbl=1  erefs: 0.17977+309
</basis_specs>

atom: Called for H                     (Z =   1)

read_vps: Pseudopotential generation method:
read_vps: ATM4.2.7  Troullier-Martins
Valence charge for ps generation:    1.00000

xc_check: Exchange-correlation functional:
xc_check: GGA Perdew, Burke & Ernzerhof 1996
V l=0 = -2*Zval/r beyond r=  0.0098
V l=1 = -2*Zval/r beyond r=  0.5817
V l=2 = -2*Zval/r beyond r=  1.9372
All V_l potentials equal beyond r=  1.9372
This should be close to max(r_c) in ps generation
All pots = -2*Zval/r beyond r=  1.9372

VLOCAL1: 99.0% of the norm of Vloc inside     11.567 Ry
VLOCAL1: 99.9% of the norm of Vloc inside     26.362 Ry
atom: Maximum radius for 4*pi*r*r*local-pseudopot. charge    2.25106
[...]
siesta: Eso     =        -0.001684
siesta: Edftu   =         0.000000
siesta: DEna    =        98.733878
siesta: DUscf   =        48.506161
siesta: DUext   =         0.000000
siesta: Exc     =      -694.932905
siesta: eta*DQ  =         0.000000
siesta: Emadel  =         0.000000
siesta: Emeta   =         0.000000
siesta: Emolmec =         0.000000
siesta: Ekinion =         0.000000
siesta: Eharris =     -2315.811125
siesta: Etot    =     -2367.982255
siesta: FreeEng =     -2367.982264

        iscf     Eharris(eV)        E_KS(eV)     FreeEng(eV)     dDmax    Ef(eV) dHmax(eV)
   scf:    1    -2315.811125    -2367.982255    -2367.982264  0.945077 -4.792667 21.198312
     spin moment: S , {S} =    2.00000   0.00000   0.00000   2.00000
   scf:    2    -2406.094784    -2393.185348    -2393.204324  0.333464 -4.146186  8.766637
     spin moment: S , {S} =    0.23887   0.00000   0.00000   0.23887
   scf:    3    -2396.979140    -2395.440867    -2395.440869  0.047647 -3.654525  6.873134
     spin moment: S , {S} =    0.00007  -0.00000  -0.00000   0.00007
   scf:    4    -2396.323209    -2395.904588    -2395.904588  0.021584 -3.410221  4.191198
     spin moment: S , {S} =    0.00004  -0.00000  -0.00000   0.00004
   scf:    5    -2396.425357    -2396.161124    -2396.161124  0.029061 -3.150631  1.543038
     spin moment: S , {S} =    0.00002  -0.00000  -0.00000   0.00002
   scf:    6    -2396.319793    -2396.237778    -2396.237778  0.018029 -3.103153  0.482318
     spin moment: S , {S} =    0.00001   0.00000  -0.00000   0.00001
   scf:    7    -2396.290830    -2396.263294    -2396.263294  0.010460 -3.725374  0.204690
     spin moment: S , {S} =    0.00000   0.00000  -0.00000   0.00000
   scf:    8    -2396.282142    -2396.272286    -2396.272286  0.006968 -3.718246  0.102863
     spin moment: S , {S} =    0.00000   0.00000  -0.00000   0.00000
   scf:    9    -2396.284554    -2396.277974    -2396.277974  0.006781 -3.717723  0.077583
     spin moment: S , {S} =    0.00000   0.00000  -0.00000   0.00000
   scf:   10    -2396.288066    -2396.282231    -2396.282231  0.009679 -3.715489  0.045120
     spin moment: S , {S} =    0.00000   0.00000  -0.00000   0.00000
   scf:   11    -2396.284234    -2396.283088    -2396.283088  0.004722 -3.714471  0.026929
     spin moment: S , {S} =    0.00000   0.00000  -0.00000   0.00000
   scf:   12    -2396.283655    -2396.283341    -2396.283341  0.002570 -3.712346  0.018432
     spin moment: S , {S} =    0.00000   0.00000  -0.00000   0.00000
   scf:   13    -2396.283627    -2396.283465    -2396.283465  0.002053 -3.710962  0.012301
     spin moment: S , {S} =    0.00000   0.00000  -0.00000   0.00000
   scf:   14    -2396.283605    -2396.283524    -2396.283524  0.001653 -3.710063  0.006516
     spin moment: S , {S} =    0.00000   0.00000  -0.00000  -0.00000
   scf:   15    -2396.283567    -2396.283542    -2396.283542  0.000940 -3.710467  0.003288
     spin moment: S , {S} =    0.00000   0.00000  -0.00000  -0.00000
   scf:   16    -2396.283556    -2396.283548    -2396.283548  0.000581 -3.710501  0.002073
     spin moment: S , {S} =    0.00000   0.00000  -0.00000  -0.00000
   scf:   17    -2396.283551    -2396.283549    -2396.283549  0.000208 -3.710486  0.001399
     spin moment: S , {S} =    0.00000   0.00000   0.00000  -0.00000
   scf:   18    -2396.283551    -2396.283550    -2396.283550  0.000160 -3.710419  0.000764
     spin moment: S , {S} =    0.00000   0.00000   0.00000  -0.00000
   scf:   19    -2396.283550    -2396.283550    -2396.283550  0.000052 -3.710347  0.000423
     spin moment: S , {S} =    0.00000   0.00000   0.00000  -0.00000
   scf:   20    -2396.283550    -2396.283550    -2396.283550  0.000035 -3.710313  0.000199
     spin moment: S , {S} =    0.00000   0.00000   0.00000  -0.00000
   scf:   21    -2396.283550    -2396.283550    -2396.283550  0.000019 -3.710293  0.000135
     spin moment: S , {S} =    0.00000  -0.00000   0.00000  -0.00000
   scf:   22    -2396.283550    -2396.283550    -2396.283550  0.000010 -3.710293  0.000071
     spin moment: S , {S} =    0.00000  -0.00000   0.00000   0.00000
   scf:   23    -2396.283550    -2396.283550    -2396.283550  0.000006 -3.710292  0.000033
     spin moment: S , {S} =    0.00000   0.00000   0.00000   0.00000
   scf:   24    -2396.283550    -2396.283550    -2396.283550  0.000002 -3.710291  0.000024
     spin moment: S , {S} =    0.00000   0.00000   0.00000   0.00000
mix: Pulay -- resetting history
   scf:   25    -2396.283550    -2396.283550    -2396.283550  0.000002 -3.710291  0.000020
     spin moment: S , {S} =    0.00000   0.00000   0.00000   0.00000
   scf:   26    -2396.283550    -2396.283550    -2396.283550  0.000003 -3.710289  0.000008
     spin moment: S , {S} =    0.00000   0.00000   0.00000   0.00000
   scf:   27    -2396.283550    -2396.283550    -2396.283550  0.000002 -3.710289  0.000003
     spin moment: S , {S} =    0.00000   0.00000   0.00000  -0.00000
   scf:   28    -2396.283550    -2396.283550    -2396.283550  0.000000 -3.710289  0.000002
     spin moment: S , {S} =    0.00000   0.00000   0.00000  -0.00000
   scf:   29    -2396.283550    -2396.283550    -2396.283550  0.000000 -3.710289  0.000001
     spin moment: S , {S} =    0.00000   0.00000   0.00000  -0.00000
   scf:   30    -2396.283550    -2396.283550    -2396.283550  0.000000 -3.710290  0.000001
     spin moment: S , {S} =    0.00000   0.00000   0.00000  -0.00000

SCF Convergence by DM+H criterion
max |DM_out - DM_in|         :     0.0000000926
max |H_out - H_in|      (eV) :     0.0000005634
SCF cycle converged after 30 iterations

Using DM_out to compute the final energy and forces
No. of atoms with KB's overlaping orbs in proc 0. Max # of overlaps:      16     142

siesta: E_KS(eV) =            -2396.2835

siesta: E_KS - E_eggbox =     -2396.2835
     spin moment: S , {S} =    0.00000   0.00000   0.00000  -0.00000

siesta: Atomic forces (eV/Ang):
     1    0.001659   -0.002236    0.000000
     2    0.001162    0.002237   -0.000000
     3    0.002422   -0.001927    0.000000
     4    0.000355   -0.003099    0.000000
     5    0.001277   -0.000559   -0.000000
     6    0.001860   -0.000021    0.000000
     7    0.000548    0.003212    0.000000
     8    0.000159   -0.000795    0.000000
     9   -0.000189   -0.000801   -0.000000
    10    0.002737    0.000027   -0.000000
    11    0.000450   -0.001781    0.000000
    12    0.001801    0.001345   -0.000000
    13    0.001335   -0.000033   -0.000000
    14   -0.000044   -0.002559   -0.000000
    15   -0.001060    0.000485    0.000000
    16   -0.001412   -0.000232   -0.000000
   Tot    0.013061   -0.006737   -0.000000
   Max    0.003212
   Res    0.001278    sqrt( Sum f_i^2 / 3N )
   Max    0.003212    constrained

Stress tensor Voigt[x,y,z,yz,xz,xy] (kbar):       -0.26        0.98       -0.14        0.00       -0.00        0.54
(Free)E + p*V (eV/cell)    -2396.5974
Target enthalpy (eV/cell)    -2396.2835

mulliken: Atomic and Orbital Populations:

Species: O

Atom      Orb        Charge      Spin       Svec
    1  7 2pz       -0.00146   0.00000      0.000  -0.000   0.000
    1  9 3Pdxy      0.00757   0.00000      0.000  -0.000   0.000
    1 10 3Pdyz      0.00954   0.00000     -0.000   0.000   0.000
    1 11 3Pdz2      0.00173   0.00000     -0.000  -0.000   0.000
    1 12 3Pdxz      0.00043   0.00000     -0.000  -0.000   0.000
    1 13 3Pdx2-y2   0.00719   0.00000     -0.000  -0.000   0.000
    1     Total     6.46624   0.00000      0.000   0.000  -0.000

Total               6.46624   0.00000      0.000   0.000  -0.000

[...]

Atom      Orb        Charge      Spin       Svec
    2  9 3Pdxy      0.00841   0.00000     -0.000   0.000  -0.000
    2 10 3Pdyz      0.01078   0.00000     -0.000  -0.000  -0.000
    2 11 3Pdz2      0.00196   0.00000     -0.000  -0.000   0.000
    2 12 3Pdxz      0.00751   0.00000     -0.000  -0.000  -0.000
    2 13 3Pdx2-y2   0.00891   0.00000      0.000  -0.000   0.000
    2     Total     5.37204   0.00000      0.000  -0.000   0.000

    3  9 3Pdxy      0.00435   0.00000     -0.000  -0.000   0.000
    3 10 3Pdyz      0.00419   0.00000     -0.000  -0.000   0.000
    3 11 3Pdz2      0.00083   0.00000     -0.000   0.000   0.000
    3 12 3Pdxz      0.00271   0.00000     -0.000   0.000   0.000
    3 13 3Pdx2-y2   0.00310   0.00000     -0.000   0.000  -0.000
    3     Total     5.53619   0.00000      0.000   0.000  -0.000

[...]

Atom      Orb        Charge      Spin       Svec
    7  9 3Pdxy      0.24300   0.00000     -0.000   0.000  -0.000
    7 10 3Pdyz      0.03039   0.00000      0.000   0.000   0.000
    7 11 3Pdz2      0.01209   0.00000     -0.000  -0.000   0.000
    7 12 3Pdxz      0.13912   0.00000      0.000  -0.000   0.000
    7 13 3Pdx2-y2   0.11299   0.00000     -0.000   0.000   0.000
    7     Total     3.84831   0.00000     -0.000  -0.000   0.000

    8  5 3px       -0.03253   0.00000     -0.000  -0.000   0.000
    8  9 3Pdxy      0.25836   0.00000     -0.000   0.000   0.000
    8 10 3Pdyz      0.10992   0.00000      0.000  -0.000  -0.000
    8 11 3Pdz2      0.01321   0.00000     -0.000  -0.000  -0.000
    8 12 3Pdxz      0.15540   0.00000      0.000  -0.000   0.000
    8 13 3Pdx2-y2   0.18798   0.00000      0.000  -0.000  -0.000
    8     Total     3.64631   0.00000      0.000  -0.000   0.000

[...]

   11  9 3Pdxy      0.24338   0.00000      0.000   0.000   0.000
   11 10 3Pdyz      0.12474   0.00000      0.000   0.000  -0.000
   11 11 3Pdz2      0.00935   0.00000     -0.000   0.000   0.000
   11 12 3Pdxz      0.05250   0.00000     -0.000   0.000  -0.000
   11 13 3Pdx2-y2   0.18404   0.00000      0.000  -0.000  -0.000
   11     Total     3.44937   0.00000     -0.000   0.000  -0.000

[...]

Species: H

Atom      Orb        Charge      Spin       Svec
   12  3 2Ppy       0.02917   0.00000     -0.000  -0.000  -0.000
   12  4 2Ppz       0.03700   0.00000      0.000  -0.000  -0.000
   12  5 2Ppx       0.02359   0.00000     -0.000  -0.000  -0.000
   12     Total     0.77298   0.00000     -0.000  -0.000  -0.000

   13  3 2Ppy       0.01990   0.00000     -0.000   0.000  -0.000
   13  4 2Ppz       0.02004   0.00000      0.000  -0.000  -0.000
   13  5 2Ppx       0.03312   0.00000     -0.000   0.000   0.000
   13     Total     1.18833   0.00000      0.000  -0.000  -0.000

[...]

   16  3 2Ppy       0.02997   0.00000      0.000  -0.000  -0.000
   16  4 2Ppz       0.03822   0.00000      0.000  -0.000  -0.000
   16  5 2Ppx       0.02260   0.00000     -0.000   0.000  -0.000
   16     Total     0.78289   0.00000      0.000   0.000  -0.000

Total              56.00000   0.00000      0.000   0.000  -0.000

siesta: Eigenvalues (eV):
ik =     1
  -22.0708  -22.0708  -21.9083  -21.9083  -21.3905  -21.3905  -20.9999  -20.9999  -19.9893  -19.9893
  -19.4820  -19.4820  -14.0238  -14.0238  -13.3128  -13.3128  -13.2420  -13.2420  -13.0299  -13.0299
  -12.6333  -12.6333  -11.6069  -11.6069  -10.8644  -10.8644  -10.8078  -10.8078   -9.3096   -9.3096
   -9.0841   -9.0841   -8.8853   -8.8853   -8.7614   -8.7614   -8.3208   -8.3208   -7.8836   -7.8836
   -7.5403   -7.5403   -7.4360   -7.4360   -6.9898   -6.9898   -6.6620   -6.6620   -6.4072   -6.4072
   -6.2984   -6.2984   -5.9918   -5.9918   -4.4980   -4.4980   -2.5059   -2.5059   -2.4399   -2.4399
   -2.0836   -2.0836   -1.9823   -1.9823   -1.6647   -1.6647   -1.3702   -1.3702   -0.9326   -0.9326
   -0.5845   -0.5845    0.1640    0.1640    0.1963    0.1963    0.4673    0.4673    0.6111    0.6111
    1.1924    1.1924    1.3002    1.3002    1.5459    1.5459    2.2165    2.2165    2.5538    2.5538
    2.5910    2.5910    2.9095    2.9095    3.1800    3.1800    3.6530    3.6530    3.7640    3.7640
    4.1871    4.1871    4.4289    4.4289    4.5730    4.5730    4.9303    4.9303    5.1100    5.1100
    5.4198    5.4198    5.4645    5.4645    5.7426    5.7426    5.8223    5.8223    6.1959    6.1959
    6.4567    6.4567    7.0235    7.0235    7.1313    7.1313    7.3447    7.3447    7.6684    7.6684
    8.0664    8.0664    8.4484    8.4484    8.5003    8.5003    8.5450    8.5450    9.0254    9.0254
    9.1055    9.1055    9.6270    9.6270    9.6596    9.6596   10.2380   10.2380   10.6805   10.6805
   10.6916   10.6916   10.8606   10.8606   11.7648   11.7648   11.8356   11.8356   11.9268   11.9268
   12.2110   12.2110   12.2533   12.2533   13.2405   13.2405   13.5689   13.5689   13.9151   13.9151
   13.9783   13.9783   14.5382   14.5382   15.6929   15.6929   16.0410   16.0410   16.8196   16.8196
   18.0536   18.0536   18.2274   18.2274   18.3839   18.3839   19.1000   19.1000   19.9293   19.9293
   21.6949   21.6949   22.4274   22.4274   22.9828   22.9828   23.4410   23.4410   23.8124   23.8124
   24.6803   24.6803   26.7881   26.7881   28.6815   28.6815   29.3232   29.3232   29.5651   29.5651
   29.9038   29.9038   30.1664   30.1664   30.5816   30.5816   30.7227   30.7227   30.8677   30.8677
   32.2226   32.2226   33.9568   33.9568   34.1360   34.1360   34.7196   34.7196   35.0535   35.0535
   35.2821   35.2821   36.4762   36.4762   36.7745   36.7745   37.1626   37.1626   37.4172   37.4172
   38.0923   38.0923   39.2474   39.2474   39.7943   39.7943   40.6029   40.6029   40.7333   40.7333
   41.0053   41.0053   41.2361   41.2361   42.7878   42.7878   43.0802   43.0802   43.8205   43.8205
   43.8655   43.8655   44.5269   44.5269   44.5847   44.5847   45.1928   45.1928   46.1514   46.1514
   46.6524   46.6524   47.2687   47.2687   49.0398   49.0398   49.2060   49.2060   50.2435   50.2435
   50.7703   50.7703   51.1203   51.1203   52.3769   52.3769   54.6486   54.6486   54.7435   54.7435
   55.6218   55.6218   56.3057   56.3057   58.0207   58.0207   58.5879   58.5879   60.1025   60.1025
   60.7814   60.7814   61.3093   61.3093   62.0276   62.0276   64.1453   64.1453   66.9841   66.9841
   67.0577   67.0577   68.5405   68.5405   70.5393   70.5393   73.2554   73.2554   89.9394   89.9394
   93.2479   93.2479   98.0902   98.0902  103.0321  103.0321  103.3596  103.3596  110.2519  110.2519
  123.7414  123.7414  130.6387  130.6387  140.9360  140.9360
siesta: Fermi energy =      -3.710290 eV

siesta: Program's energy decomposition (eV):
siesta: Ebs     =      -658.859703
siesta: Eions   =      2040.955082
siesta: Ena     =       223.142245
siesta: Ekin    =      1679.117244
siesta: Enl     =     -1651.279998
siesta: Eso     =        -0.002376
siesta: Edftu   =         0.000000
siesta: DEna    =        30.591604
siesta: DUscf   =         8.039457
siesta: DUext   =         0.000000
siesta: Exc     =      -644.936644
siesta: eta*DQ  =         0.000000
siesta: Emadel  =         0.000000
siesta: Emeta   =         0.000000
siesta: Emolmec =         0.000000
siesta: Ekinion =         0.000000
siesta: Eharris =     -2396.283550
siesta: Etot    =     -2396.283550
siesta: FreeEng =     -2396.283550

siesta: Final energy (eV):
siesta:  Band Struct. =    -658.859703
siesta:       Kinetic =    1679.117244
siesta:       Hartree =    4029.619562
siesta:       Edftu   =       0.000000
siesta:       Eso     =      -0.002376
siesta:    Ext. field =       0.000000
siesta:   Exch.-corr. =    -644.936644
siesta:  Ion-electron =   -9559.862088
siesta:       Ion-ion =    2099.780752
siesta:       Ekinion =       0.000000
siesta:         Total =   -2396.283550
siesta:         Fermi =      -3.710290

siesta: Stress tensor (static) (eV/Ang**3):
siesta:    -0.000162    0.000336   -0.000000
siesta:     0.000336    0.000614   -0.000000
siesta:    -0.000000    0.000000   -0.000084

siesta: Cell volume =       2563.210139 Ang**3

siesta: Pressure (static):
siesta:                Solid            Molecule  Units
siesta:          -0.00000133         -0.00000135  Ry/Bohr**3
siesta:          -0.00012243         -0.00012403  eV/Ang**3
siesta:          -0.19616312         -0.19871521  kBar
(Free)E+ p_basis*V_orbitals  =       -2385.293874
(Free)Eharris+ p_basis*V_orbitals  =       -2385.293874
     spin moment: S , {S} =    0.00000   0.00000   0.00000  -0.00000

siesta: Electric dipole (a.u.)  =    1.116360   -3.173990   -0.000000
siesta: Electric dipole (Debye) =    2.837506   -8.067482   -0.000000

cite: Please see "Guanine.bib" for an exhaustive BiBTeX file.
cite: Please clearly indicate Siesta version in published work: v4.1.5-1-g384057250
cite: This calculation has made use of the following articles
cite: which are encouraged to be cited in a published work.
        Primary SIESTA paper
          DOI: www.doi.org/10.1088/0953-8984/14/11/302
        Spin-orbit coupling (on-site approximation)
          DOI: www.doi.org/10.1088/0953-8984/19/19/489001

WARNING: alloc-realloc-dealloc name mismatch
         Name: atomlist isa
         Node:     0
         Subsequent mismatches will not be reported
>> End of run:   1-JUN-2023  12:25:49
Job completed