>> Start of run:  16-MAY-2023   9:26:45

reinit: Reading from standard input
reinit: Dumped input in INPUT_TMP.08777
************************** Dump of input data file ****************************
# mpirun -np 4 siesta-4.1.5 < Thymine.fdf > Thymine.out
SystemLabel      Thymine
NumberOfAtoms    15
NumberOfSpecies  4
%block ChemicalSpeciesLabel
    1    7  N
    2   14  Si
    3    1  H
    4    8  O
%endblock ChemicalSpeciesLabel
# This overrides Defaults.fdf conf
MD.TypeOfRun                CG # CG, Verlet
MD.Steps                    0
AtomicCoordinatesFormat NotScaledCartesianAng
%block AtomicCoordinatesAndAtomicSpecies
   -0.72091097    4.52666618    0.00000000   1       1  N
   -2.51564088    4.60051849    0.00000000   2       2  Si
   -2.90040995    6.05473365    0.00000000   3       3  H
   -3.68240572    2.74617003    0.00000000   2       4  Si
   -5.96356556    2.30731156    0.00000000   2       5  Si
   -6.59119571    3.29524031    0.94030528   3       6  H
   -6.06195746    0.89072833    0.51261370   3       7  H
   -6.58851679    2.40458391   -1.36667834   3       8  H
   -2.16978327    1.04694531    0.00000000   2       9  Si
   -2.19885692   -0.53487894    0.00000000   4      10  O
   -0.49294269    1.62638579    0.00000000   1      11  N
    0.17618158    0.80092449    0.00000000   3      12  H
    0.36702009    3.12740005    0.00000000   2      13  Si
    1.93451553    3.11844685    0.00000000   4      14  O
   -0.17692559    5.43415161    0.00000000   3      15  H
%endblock AtomicCoordinatesAndAtomicSpecies
%include ../../Defaults.fdf
************************** End of input data file *****************************

reinit: -----------------------------------------------------------------------
reinit: System Name:
reinit: -----------------------------------------------------------------------
reinit: System Label: Thymine
reinit: -----------------------------------------------------------------------

initatom: Reading input for the pseudopotentials and atomic orbitals ----------
Species number:   1 Atomic number:    7 Label: N
Species number:   2 Atomic number:   14 Label: Si
Species number:   3 Atomic number:    1 Label: H
Species number:   4 Atomic number:    8 Label: O

Ground state valence configuration:   2s02  2p03
Reading pseudopotential information in formatted form from N.psf

Pseudopotential generated from a relativistic atomic calculation

Valence configuration for pseudopotential generation:
2s( 2.00) rc: 0.94
2p( 3.00) rc: 0.59
3d( 0.00) rc: 3.46
4f( 0.00) rc: 2.47
Ground state valence configuration:   3s02  3p02
Reading pseudopotential information in formatted form from Si.psf

[...]

Valence configuration for pseudopotential generation:
3s( 2.00) rc: 1.67
3p( 2.00) rc: 2.04
3d( 0.00) rc: 2.89
4f( 0.00) rc: 2.49
Ground state valence configuration:   1s01
Reading pseudopotential information in formatted form from H.psf

[...]

Valence configuration for pseudopotential generation:
1s( 1.00) rc: 0.01
2p( 0.00) rc: 0.60
3d( 0.00) rc: 1.99
4f( 0.00) rc: 2.49
Ground state valence configuration:   2s02  2p04
Reading pseudopotential information in formatted form from O.psf

Pseudopotential generated from a relativistic atomic calculation

Valence configuration for pseudopotential generation:
2s( 2.00) rc: 0.45
2p( 4.00) rc: 0.92
3d( 0.00) rc: 2.24
4f( 0.00) rc: 0.25
For N, standard SIESTA heuristics set lmxkb to 3
 (one more than the basis l, including polarization orbitals).
Use PS.lmax or PS.KBprojectors blocks to override.
For Si, standard SIESTA heuristics set lmxkb to 3
 (one more than the basis l, including polarization orbitals).
Use PS.lmax or PS.KBprojectors blocks to override.
For H, standard SIESTA heuristics set lmxkb to 2
 (one more than the basis l, including polarization orbitals).
Use PS.lmax or PS.KBprojectors blocks to override.
For O, standard SIESTA heuristics set lmxkb to 3
 (one more than the basis l, including polarization orbitals).
Use PS.lmax or PS.KBprojectors blocks to override.

<basis_specs>
N                    Z=   7    Mass=  14.010        Charge= 0.17977+309
Lmxo=1 Lmxkb= 3    BasisType=split      Semic=F
L=0  Nsemic=0  Cnfigmx=2
          i=1  nzeta=2  polorb=0  (2s)
            splnorm:   0.28000
               vcte:    0.0000
               rinn:    0.0000
               qcoe:    0.0000
               qyuk:    0.0000
               qwid:   0.10000E-01
                rcs:    0.0000      0.0000
            lambdas:    1.0000      1.0000
L=1  Nsemic=0  Cnfigmx=2
          i=1  nzeta=2  polorb=1  (2p)
            splnorm:   0.28000
               vcte:    0.0000
               rinn:    0.0000
               qcoe:    0.0000
               qyuk:    0.0000
               qwid:   0.10000E-01
                rcs:    0.0000      0.0000
            lambdas:    1.0000      1.0000
L=0  Nkbl=1  erefs: 0.17977+309
L=1  Nkbl=1  erefs: 0.17977+309
L=2  Nkbl=1  erefs: 0.17977+309
L=3  Nkbl=1  erefs: 0.17977+309
</basis_specs>

atom: Called for N                     (Z =   7)

read_vps: Pseudopotential generation method:
read_vps: ATM4.2.7  Troullier-Martins
Valence charge for ps generation:    5.00000

xc_check: Exchange-correlation functional:
xc_check: GGA Perdew, Burke & Ernzerhof 1996
V l=0 = -2*Zval/r beyond r=  1.2889
V l=1 = -2*Zval/r beyond r=  1.2889
V l=2 = -2*Zval/r beyond r=  3.4178
V l=3 = -2*Zval/r beyond r=  2.4084
All V_l potentials equal beyond r=  3.3753
This should be close to max(r_c) in ps generation
All pots = -2*Zval/r beyond r=  3.4178

VLOCAL1: 99.0% of the norm of Vloc inside      3.810 Ry
VLOCAL1: 99.9% of the norm of Vloc inside      8.683 Ry
atom: Maximum radius for 4*pi*r*r*local-pseudopot. charge    4.02088
atom: Maximum radius for r*vlocal+2*Zval:    3.54838
GHOST: No ghost state for L =  0
GHOST: No ghost state for L =  1
GHOST: No ghost state for L =  2
GHOST: No ghost state for L =  3

KBgen: Kleinman-Bylander projectors:
   l= 0   rc=  3.417763   el= -1.365098   Ekb= -4.433130   kbcos= -0.707855
   l= 1   rc=  3.375302   el= -0.521201   Ekb=-13.264039   kbcos= -0.535594
   l= 2   rc=  3.872880   el=  0.001991   Ekb= -0.641094   kbcos= -0.062456
   l= 3   rc=  3.970931   el=  0.003093   Ekb= -0.474517   kbcos= -0.018236

KBgen: Total number of Kleinman-Bylander projectors:   16
atom: -------------------------------------------------------------------------

atom: SANKEY-TYPE ORBITALS:
atom: Selected multiple-zeta basis: split

SPLIT: Orbitals with angular momentum L= 0

SPLIT: Basis orbitals for state 2s

SPLIT: PAO cut-off radius determined from an
SPLIT: energy shift=  0.002000 Ry

   izeta = 1
                 lambda =    1.000000
                     rc =    4.730425
                 energy =   -1.363399
                kinetic =    1.245246
    potential(screened) =   -2.608645
       potential(ionic) =   -8.121105

   izeta = 2
                 rmatch =    2.531849
              splitnorm =    0.280000
                 energy =   -0.959908
                kinetic =    2.409435
    potential(screened) =   -3.369343
       potential(ionic) =   -9.427975

[...]

SPLIT: Basis orbitals for state 2p

[...]

POLgen: Perturbative polarization orbital with L=  2

POLgen: Polarization orbital for state 2p

   izeta = 1
                     rc =    5.924108
                 energy =    1.427508
                kinetic =    2.872379
    potential(screened) =   -1.444871
       potential(ionic) =   -5.563644
atom: Total number of Sankey-type orbitals: 13

atm_pop: Valence configuration (for local Pseudopot. screening):
 2s( 2.00)
 2p( 3.00)
Vna: chval, zval:    5.00000   5.00000

Vna:  Cut-off radius for the neutral-atom potential:   5.924108

atom: _________________________________________________________________________

[...]

KBgen: Kleinman-Bylander projectors:
   l= 0   rc=  3.075247   el= -0.794092   Ekb=  5.879390   kbcos=  0.167461
   l= 1   rc=  3.153101   el= -0.300068   Ekb=  2.642817   kbcos=  0.058301
   l= 2   rc=  3.273594   el=  0.001958   Ekb= -1.185135   kbcos= -0.104411
   l= 3   rc=  3.232927   el=  0.003046   Ekb= -0.497174   kbcos= -0.015889

[...]

<basis_specs>
H                    Z=   1    Mass=  1.0100        Charge= 0.17977+309
Lmxo=0 Lmxkb= 2    BasisType=split      Semic=F
L=0  Nsemic=0  Cnfigmx=1
          i=1  nzeta=2  polorb=1  (1s)
            splnorm:   0.62000
               vcte:    0.0000
               rinn:    0.0000
               qcoe:    0.0000
               qyuk:    0.0000
               qwid:   0.10000E-01
                rcs:    0.0000      0.0000
            lambdas:    1.0000      1.0000
L=0  Nkbl=1  erefs: 0.17977+309
L=1  Nkbl=1  erefs: 0.17977+309
L=2  Nkbl=1  erefs: 0.17977+309
</basis_specs>

[...]

KBgen: Kleinman-Bylander projectors:
   l= 0   rc=  2.036604   el= -0.477180   Ekb= -6.081590   kbcos= -0.277285
   l= 1   rc=  2.195416   el=  0.001076   Ekb= -0.926943   kbcos= -0.034643
   l= 2   rc=  2.251056   el=  0.002010   Ekb= -0.130941   kbcos= -0.009788

[...]

POLgen: Polarization orbital for state 1s

[...]

atm_pop: Valence configuration (for local Pseudopot. screening):
 1s( 1.00)
Vna: chval, zval:    1.00000   1.00000

[...]

<basis_specs>
O                    Z=   8    Mass=  16.000        Charge= 0.17977+309
Lmxo=1 Lmxkb= 3    BasisType=split      Semic=F
L=0  Nsemic=0  Cnfigmx=2
          i=1  nzeta=2  polorb=0  (2s)
            splnorm:   0.28000
               vcte:    0.0000
               rinn:    0.0000
               qcoe:    0.0000
               qyuk:    0.0000
               qwid:   0.10000E-01
                rcs:    0.0000      0.0000
            lambdas:    1.0000      1.0000
L=1  Nsemic=0  Cnfigmx=2
          i=1  nzeta=2  polorb=1  (2p)
            splnorm:   0.28000
               vcte:    0.0000
               rinn:    0.0000
               qcoe:    0.0000
               qyuk:    0.0000
               qwid:   0.10000E-01
                rcs:    0.0000      0.0000
            lambdas:    1.0000      1.0000
L=0  Nkbl=1  erefs: 0.17977+309
L=1  Nkbl=1  erefs: 0.17977+309
L=2  Nkbl=1  erefs: 0.17977+309
L=3  Nkbl=1  erefs: 0.17977+309
</basis_specs>

atom: Called for O                     (Z =   8)

read_vps: Pseudopotential generation method:
read_vps: ATM4.2.7  Troullier-Martins
Valence charge for ps generation:    6.00000

xc_check: Exchange-correlation functional:
xc_check: GGA Perdew, Burke & Ernzerhof 1996
V l=0 = -2*Zval/r beyond r=  1.1000
V l=1 = -2*Zval/r beyond r=  1.1000
V l=2 = -2*Zval/r beyond r=  2.2154
V l=3 = -2*Zval/r beyond r=  1.1000
All V_l potentials equal beyond r=  2.2154
This should be close to max(r_c) in ps generation
All pots = -2*Zval/r beyond r=  2.2154

VLOCAL1: 99.0% of the norm of Vloc inside      8.845 Ry
VLOCAL1: 99.9% of the norm of Vloc inside     20.157 Ry
atom: Maximum radius for 4*pi*r*r*local-pseudopot. charge    2.67231
atom: Maximum radius for r*vlocal+2*Zval:    2.32897
GHOST: No ghost state for L =  0
GHOST: No ghost state for L =  1
GHOST: No ghost state for L =  2
GHOST: No ghost state for L =  3

KBgen: Kleinman-Bylander projectors:
   l= 0   rc=  2.243238   el= -1.759686   Ekb=**********   kbcos= -0.171774
   l= 1   rc=  2.328968   el= -0.663873   Ekb=-14.506792   kbcos= -0.519897
[...]
           1       1:   77    1:   18    1:   60
           2      78:   96    1:   19    1:   60
           3       1:   77   19:   80    1:   60
           4      78:   96   20:   80    1:   60
New grid distribution:   3
           1       1:   64    1:   21    1:   60
           2      65:   96    1:   29    1:   60
           3       1:   64   22:   80    1:   60
           4      65:   96   30:   80    1:   60
Setting up quadratic distribution...
ExtMesh (bp) on 0 =   181 x   122 x   168 =     3709776
PhiOnMesh: Number of (b)points on node 0 =                83160
PhiOnMesh: nlist on node 0 =              1367897

stepf: Fermi-Dirac step function

siesta: Program's energy decomposition (eV):
siesta: Ebs     =      -363.736942
siesta: Eions   =      1908.291957
siesta: Ena     =       162.573858
siesta: Ekin    =      1650.203923
siesta: Enl     =     -1411.073633
siesta: Eso     =        -0.002260
siesta: Edftu   =         0.000000
siesta: DEna    =        32.037610
siesta: DUscf   =        33.492339
siesta: DUext   =         0.000000
siesta: Exc     =      -580.425053
siesta: eta*DQ  =         0.000000
siesta: Emadel  =         0.000000
siesta: Emeta   =         0.000000
siesta: Emolmec =         0.000000
siesta: Ekinion =         0.000000
siesta: Eharris =     -1995.887756
siesta: Etot    =     -2021.485173
siesta: FreeEng =     -2021.489416

        iscf     Eharris(eV)        E_KS(eV)     FreeEng(eV)     dDmax    Ef(eV) dHmax(eV)
   scf:    1    -1995.887756    -2021.485173    -2021.489416  0.971467 -4.941031 21.060399
     spin moment: S , {S} =    0.03214   0.00002   0.00003   0.03214
   scf:    2    -2045.899583    -2037.106987    -2037.106993  0.127780 -4.936614  6.498787
     spin moment: S , {S} =    0.00010   0.00001   0.00001   0.00010
   scf:    3    -2039.420879    -2038.635208    -2038.635208  0.054079 -4.692351  4.680402
     spin moment: S , {S} =    0.00005   0.00001   0.00001   0.00005
   scf:    4    -2039.278093    -2039.003033    -2039.003033  0.030216 -4.514228  2.597297
     spin moment: S , {S} =    0.00002   0.00000   0.00001   0.00002
   scf:    5    -2038.826439    -2039.046650    -2039.046650  0.047852 -4.396034  2.735691
     spin moment: S , {S} =    0.00001   0.00000   0.00000   0.00001
   scf:    6    -2039.004060    -2039.195618    -2039.195618  0.044077 -4.547166  1.515971
     spin moment: S , {S} =    0.00000   0.00000   0.00000   0.00000
   scf:    7    -2039.263258    -2039.270804    -2039.270804  0.021566 -4.425019  0.527067
     spin moment: S , {S} =    0.00000   0.00000   0.00000   0.00000
   scf:    8    -2039.291986    -2039.283213    -2039.283213  0.007215 -4.455912  0.110012
     spin moment: S , {S} =    0.00000   0.00000   0.00000   0.00000
   scf:    9    -2039.290826    -2039.286781    -2039.286781  0.004651 -4.459566  0.055149
     spin moment: S , {S} =    0.00000   0.00000   0.00000   0.00000
   scf:   10    -2039.290926    -2039.288580    -2039.288580  0.004744 -4.459893  0.022281
     spin moment: S , {S} =    0.00000   0.00000   0.00000  -0.00000
   scf:   11    -2039.289071    -2039.288798    -2039.288798  0.001411 -4.455391  0.011928
     spin moment: S , {S} =    0.00000   0.00000   0.00000  -0.00000
   scf:   12    -2039.288888    -2039.288839    -2039.288839  0.000566 -4.452711  0.005760
     spin moment: S , {S} =    0.00000   0.00000   0.00000  -0.00000
   scf:   13    -2039.288882    -2039.288858    -2039.288858  0.000473 -4.450804  0.004342
     spin moment: S , {S} =    0.00000   0.00000   0.00000  -0.00000
   scf:   14    -2039.288880    -2039.288868    -2039.288868  0.000404 -4.450466  0.002252
     spin moment: S , {S} =    0.00000   0.00000   0.00000  -0.00000
   scf:   15    -2039.288876    -2039.288871    -2039.288871  0.000250 -4.450296  0.001613
     spin moment: S , {S} =    0.00000  -0.00000   0.00000  -0.00000
   scf:   16    -2039.288875    -2039.288873    -2039.288873  0.000216 -4.450297  0.000890
     spin moment: S , {S} =    0.00000  -0.00000   0.00000   0.00000
   scf:   17    -2039.288875    -2039.288874    -2039.288874  0.000176 -4.450262  0.000493
     spin moment: S , {S} =    0.00000  -0.00000   0.00000   0.00000
   scf:   18    -2039.288874    -2039.288874    -2039.288874  0.000084 -4.450349  0.000255
     spin moment: S , {S} =    0.00000  -0.00000   0.00000   0.00000
   scf:   19    -2039.288874    -2039.288874    -2039.288874  0.000034 -4.450338  0.000177
     spin moment: S , {S} =    0.00000  -0.00000   0.00000   0.00000
   scf:   20    -2039.288874    -2039.288874    -2039.288874  0.000036 -4.450304  0.000090
     spin moment: S , {S} =    0.00000  -0.00000   0.00000   0.00000
   scf:   21    -2039.288874    -2039.288874    -2039.288874  0.000013 -4.450278  0.000050
     spin moment: S , {S} =    0.00000   0.00000   0.00000   0.00000
   scf:   22    -2039.288874    -2039.288874    -2039.288874  0.000008 -4.450268  0.000031
     spin moment: S , {S} =    0.00000   0.00000   0.00000   0.00000
   scf:   23    -2039.288874    -2039.288874    -2039.288874  0.000004 -4.450270  0.000017
     spin moment: S , {S} =    0.00000   0.00000   0.00000   0.00000
   scf:   24    -2039.288874    -2039.288874    -2039.288874  0.000001 -4.450266  0.000009
     spin moment: S , {S} =    0.00000   0.00000   0.00000   0.00000
mix: Pulay -- resetting history
   scf:   25    -2039.288874    -2039.288874    -2039.288874  0.000001 -4.450266  0.000004
     spin moment: S , {S} =    0.00000   0.00000   0.00000   0.00000
   scf:   26    -2039.288874    -2039.288874    -2039.288874  0.000000 -4.450266  0.000002
     spin moment: S , {S} =    0.00000   0.00000   0.00000   0.00000
   scf:   27    -2039.288874    -2039.288874    -2039.288874  0.000000 -4.450266  0.000002
     spin moment: S , {S} =    0.00000  -0.00000   0.00000   0.00000
   scf:   28    -2039.288874    -2039.288874    -2039.288874  0.000000 -4.450266  0.000001
     spin moment: S , {S} =    0.00000  -0.00000   0.00000   0.00000

SCF Convergence by DM+H criterion
max |DM_out - DM_in|         :     0.0000001598
max |H_out - H_in|      (eV) :     0.0000007925
SCF cycle converged after 28 iterations

Using DM_out to compute the final energy and forces
No. of atoms with KB's overlaping orbs in proc 0. Max # of overlaps:      15     125

siesta: E_KS(eV) =            -2039.2889

siesta: E_KS - E_eggbox =     -2039.2889
     spin moment: S , {S} =    0.00000  -0.00000   0.00000   0.00000

siesta: Atomic forces (eV/Ang):
     1   -0.000783    0.002682    0.008070
     2    0.000567   -0.001438   -0.039571
     3    0.013960   -0.103360    0.008276
     4   -0.000026   -0.000468   -0.041950
     5    0.001317    0.000382    0.024845
     6   -0.056717    0.013554    0.059426
     7    0.087933    0.017490    0.021147
     8    0.125423    0.011455   -0.036099
     9   -0.001933    0.002483   -0.026739
    10    1.121668    0.126407    0.003207
    11    0.004779    0.000687    0.006762
    12   -0.037033   -0.075865    0.002766
    13    0.001158    0.002009   -0.000786
    14   -0.952371   -0.795094   -0.001138
    15   -0.046434   -0.002186    0.008118
   Tot    0.261509   -0.801262   -0.003666
   Max    1.121668
   Res    0.252588    sqrt( Sum f_i^2 / 3N )
   Max    1.121668    constrained

Stress tensor Voigt[x,y,z,yz,xz,xy] (kbar):       -3.20       -2.03       -0.45       -0.00        0.12       -1.04
(Free)E + p*V (eV/cell)    -2036.3966
Target enthalpy (eV/cell)    -2039.2889

mulliken: Atomic and Orbital Populations:

Species: N

Atom      Orb        Charge      Spin       Svec
    1  9 3Pdxy      0.00651   0.00000     -0.000   0.000   0.000
    1 10 3Pdyz      0.00183   0.00000     -0.000  -0.000   0.000
    1 11 3Pdz2      0.00090   0.00000     -0.000   0.000   0.000
    1 12 3Pdxz      0.00528   0.00000     -0.000   0.000  -0.000
    1 13 3Pdx2-y2   0.00108   0.00000     -0.000   0.000  -0.000
    1     Total     5.56242   0.00000     -0.000  -0.000  -0.000

   11  9 3Pdxy      0.00250   0.00000      0.000   0.000   0.000
   11 10 3Pdyz      0.00230   0.00000     -0.000   0.000   0.000
   11 11 3Pdz2     -0.00124   0.00000     -0.000   0.000   0.000
   11 12 3Pdxz      0.00316   0.00000     -0.000  -0.000   0.000
   11 13 3Pdx2-y2   0.00035   0.00000      0.000   0.000  -0.000
   11     Total     5.53271   0.00000     -0.000  -0.000  -0.000

Total              11.09513   0.00000     -0.000  -0.000  -0.000

[...]

Atom      Orb        Charge      Spin       Svec
    3  3 2Ppy       0.03640   0.00000      0.000  -0.000   0.000
    3  4 2Ppz       0.01845   0.00000     -0.000  -0.000  -0.000
    3  5 2Ppx       0.00949   0.00000     -0.000   0.000  -0.000
    3     Total     1.19384   0.00000      0.000   0.000  -0.000

    6  3 2Ppy       0.02041   0.00000     -0.000  -0.000   0.000
    6  4 2Ppz       0.02115   0.00000      0.000  -0.000   0.000
    6  5 2Ppx       0.01348   0.00000     -0.000  -0.000  -0.000
    6     Total     1.20224   0.00000     -0.000   0.000  -0.000

[...]

   15  3 2Ppy       0.02320   0.00000     -0.000   0.000  -0.000
   15  4 2Ppz       0.03384   0.00000      0.000   0.000  -0.000
   15  5 2Ppx       0.02606   0.00000      0.000  -0.000  -0.000
   15     Total     0.75406   0.00000      0.000   0.000  -0.000

[...]

Species: O

Atom      Orb        Charge      Spin       Svec
   10  9 3Pdxy      0.00715   0.00000      0.000   0.000   0.000
   10 10 3Pdyz      0.01071   0.00000     -0.000  -0.000   0.000
   10 11 3Pdz2      0.00136   0.00000      0.000   0.000  -0.000
   10 12 3Pdxz     -0.00018   0.00000     -0.000   0.000  -0.000
   10 13 3Pdx2-y2   0.00740   0.00000     -0.000  -0.000  -0.000
   10     Total     6.46395   0.00000      0.000   0.000  -0.000

   14  9 3Pdxy      0.00785   0.00000     -0.000   0.000   0.000
   14 10 3Pdyz     -0.00022   0.00000      0.000  -0.000   0.000
   14 11 3Pdz2      0.00136   0.00000     -0.000   0.000   0.000
   14 12 3Pdxz      0.01117   0.00000     -0.000  -0.000   0.000
   14 13 3Pdx2-y2   0.00798   0.00000     -0.000   0.000  -0.000
   14     Total     6.46465   0.00000      0.000   0.000  -0.000

Total              48.00000   0.00000     -0.000   0.000   0.000

siesta: Eigenvalues (eV):
ik =     1
  -22.9266  -22.9266  -22.5045  -22.5045  -21.9004  -21.9004  -21.2393  -21.2393  -15.1823  -15.1823
  -14.2219  -14.2219  -13.6194  -13.6194  -13.2188  -13.2188  -11.9410  -11.9410  -11.4368  -11.4368
  -10.6608  -10.6608   -9.7004   -9.7004   -9.3857   -9.3857   -9.2098   -9.2098   -9.1206   -9.1206
   -8.6093   -8.6093   -8.3569   -8.3569   -8.0778   -8.0778   -7.8493   -7.8493   -7.2932   -7.2932
   -6.8228   -6.8228   -6.6301   -6.6301   -6.3269   -6.3269   -5.8339   -5.8339   -3.6051   -3.6051
   -2.7144   -2.7144   -2.3471   -2.3471   -2.0947   -2.0947   -1.8506   -1.8506   -1.5130   -1.5130
   -1.0208   -1.0208   -0.2109   -0.2109   -0.0601   -0.0601    0.0675    0.0675    0.3958    0.3958
    0.5121    0.5121    0.8206    0.8206    1.2017    1.2017    1.4404    1.4404    1.6235    1.6235
    2.1640    2.1640    2.7398    2.7398    2.9154    2.9154    3.0955    3.0955    3.2896    3.2896
    3.6412    3.6412    4.0382    4.0382    4.4595    4.4595    4.5764    4.5764    4.7289    4.7289
    5.0723    5.0723    5.5515    5.5515    5.6712    5.6712    6.0930    6.0930    6.4735    6.4735
    6.6106    6.6106    6.8664    6.8664    7.1076    7.1076    7.8129    7.8129    7.9430    7.9430
    8.3843    8.3843    8.5869    8.5869    8.6037    8.6037    9.7825    9.7825    9.9983    9.9983
   10.0697   10.0697   10.1298   10.1298   10.7555   10.7555   11.2411   11.2411   11.5058   11.5058
   11.8927   11.8927   11.9954   11.9954   12.3898   12.3898   12.7583   12.7583   13.0052   13.0052
   13.3480   13.3480   13.5438   13.5438   13.6790   13.6790   14.4420   14.4420   14.9086   14.9086
   15.7079   15.7079   16.2237   16.2237   16.5253   16.5253   17.0370   17.0370   17.3576   17.3576
   18.1792   18.1792   18.5047   18.5047   19.9139   19.9139   20.0830   20.0830   20.6948   20.6948
   21.0500   21.0500   21.5915   21.5915   22.5524   22.5524   23.0740   23.0740   23.2520   23.2520
   24.3685   24.3685   25.2546   25.2546   26.0545   26.0545   27.1744   27.1744   28.0405   28.0405
   28.3029   28.3029   28.6225   28.6225   29.8563   29.8563   31.4717   31.4717   31.8234   31.8234
   33.4804   33.4804   34.0336   34.0336   34.2266   34.2266   34.4901   34.4901   35.4718   35.4718
   35.8928   35.8928   36.4401   36.4401   37.6128   37.6128   38.8599   38.8599   38.9836   38.9836
   39.9235   39.9235   41.8703   41.8703   42.0536   42.0536   42.9632   42.9632   44.9518   44.9518
   45.9247   45.9247   47.6830   47.6830   48.0302   48.0302   48.6310   48.6310   49.3916   49.3916
   50.0277   50.0277   50.4808   50.4808   50.7039   50.7039   52.3089   52.3089   54.1034   54.1034
   55.0471   55.0471   55.5597   55.5597   56.4589   56.4589   56.5359   56.5359   58.5777   58.5777
   59.0533   59.0533   62.9080   62.9080   66.4904   66.4904   67.2820   67.2820   68.1292   68.1292
   73.6174   73.6174   91.4097   91.4097   92.5445   92.5445   97.5294   97.5294  100.5816  100.5816
  120.4073  120.4073  135.6258  135.6258
siesta: Fermi energy =      -4.450266 eV

siesta: Program's energy decomposition (eV):
siesta: Ebs     =      -564.137012
siesta: Eions   =      1908.291957
siesta: Ena     =       162.573858
siesta: Ekin    =      1443.624690
siesta: Enl     =     -1207.741047
siesta: Eso     =        -0.002425
siesta: Edftu   =         0.000000
siesta: DEna    =         8.027977
siesta: DUscf   =         6.980223
siesta: DUext   =         0.000000
siesta: Exc     =      -544.460193
siesta: eta*DQ  =         0.000000
siesta: Emadel  =         0.000000
siesta: Emeta   =         0.000000
siesta: Emolmec =         0.000000
siesta: Ekinion =         0.000000
siesta: Eharris =     -2039.288874
siesta: Etot    =     -2039.288874
siesta: FreeEng =     -2039.288874

siesta: Final energy (eV):
siesta:  Band Struct. =    -564.137012
siesta:       Kinetic =    1443.624690
siesta:       Hartree =    3124.914585
siesta:       Edftu   =       0.000000
siesta:       Eso     =      -0.002425
siesta:    Ext. field =       0.000000
siesta:   Exch.-corr. =    -544.460193
siesta:  Ion-electron =   -7551.202840
siesta:       Ion-ion =    1487.837307
siesta:       Ekinion =       0.000000
siesta:         Total =   -2039.288874
siesta:         Fermi =      -4.450266

siesta: Atomic forces (eV/Ang):
siesta:      1   -0.000783    0.002682    0.008070
siesta:      2    0.000567   -0.001438   -0.039571
siesta:      3    0.013960   -0.103360    0.008276
siesta:      4   -0.000026   -0.000468   -0.041950
siesta:      5    0.001317    0.000382    0.024845
siesta:      6   -0.056717    0.013554    0.059426
siesta:      7    0.087933    0.017490    0.021147
siesta:      8    0.125423    0.011455   -0.036099
siesta:      9   -0.001933    0.002483   -0.026739
siesta:     10    1.121668    0.126407    0.003207
siesta:     11    0.004779    0.000687    0.006762
siesta:     12   -0.037033   -0.075865    0.002766
siesta:     13    0.001158    0.002009   -0.000786
siesta:     14   -0.952371   -0.795094   -0.001138
siesta:     15   -0.046434   -0.002186    0.008118
siesta: ----------------------------------------
siesta:    Tot    0.261509   -0.801262   -0.003666

siesta: Stress tensor (static) (eV/Ang**3):
siesta:    -0.001997   -0.000647    0.000074
siesta:    -0.000647   -0.001270   -0.000002
siesta:     0.000074   -0.000002   -0.000279

siesta: Cell volume =       2447.125541 Ang**3

siesta: Pressure (static):
siesta:                Solid            Molecule  Units
siesta:           0.00001287          0.00002103  Ry/Bohr**3
siesta:           0.00118189          0.00193065  eV/Ang**3
siesta:           1.89362409          3.09326951  kBar
(Free)E+ p_basis*V_orbitals  =       -2028.842659
(Free)Eharris+ p_basis*V_orbitals  =       -2028.842659
     spin moment: S , {S} =    0.00000  -0.00000   0.00000   0.00000

siesta: Electric dipole (a.u.)  =   -1.936579    2.394464   -0.013719
siesta: Electric dipole (Debye) =   -4.922296    6.086125   -0.034870

cite: Please see "Thymine.bib" for an exhaustive BiBTeX file.
cite: Please clearly indicate Siesta version in published work: v4.1.5-1-g384057250
cite: This calculation has made use of the following articles
cite: which are encouraged to be cited in a published work.
        Primary SIESTA paper
          DOI: www.doi.org/10.1088/0953-8984/14/11/302
        Spin-orbit coupling (on-site approximation)
          DOI: www.doi.org/10.1088/0953-8984/19/19/489001

WARNING: alloc-realloc-dealloc name mismatch
         Name: atomlist isa
         Node:     0
         Subsequent mismatches will not be reported
>> End of run:  16-MAY-2023   9:29:00
Job completed