 NOTE: Siesta V5 introduces some new defaults for basis-set generation
 NOTE: which might lead to slightly different numerical results.
 NOTE: Please see the manual for full details and compatibility measures.

reinit: Reading from standard input
reinit: Dumping input in INPUT_TMP.51724
************************** Dump of input data file ****************************
# mpirun -np 8 siesta-5 < Adenine.fdf > Adenine.out
SystemLabel      Adenine
NumberOfAtoms    15
NumberOfSpecies  3
%block ChemicalSpeciesLabel
    1    1  H  ../../../Pseudos/VW/H/H.psf
    2    7  N  ../../../Pseudos/VW/N/N.psf
    3   14  Si ../../../Pseudos/VW/Si/Si.psf
%endblock ChemicalSpeciesLabel
# This overrides Defaults.fdf configuration
XC.Functional               VDW
XC.Authors                  DRSLL
MD.Steps                    1000
%block Geometry.Constraints
    atom all 0.0 0.0 1.0 # constrain along z Cartesian vector
    atom [6]
%endblock
AtomicCoordinatesFormat NotScaledCartesianAng
%block AtomicCoordinatesAndAtomicSpecies
    2.17791394   -5.14500016    0.00000000   1       1  H
    1.27855989   -4.61207848    0.00000000   2       2  N
   -0.31932463   -5.40075897    0.00000000   3       3  Si
   -0.26963524   -6.87694072    0.00000000   1       4  H
   -1.73360909   -4.47523714    0.00000000   2       5  N
   -1.16006198   -2.76542566    0.00000000   3       6  Si
   -1.48201456   -0.58553738    0.00000000   3       7  Si
   -3.00465487    0.27035479    0.00000000   2       8  N
   -3.05354158    1.31396559    0.00000000   1       9  H
   -3.91957809   -0.23295887    0.00000000   1      10  H
   -0.08480167    0.41373221    0.00000000   2      11  N
    1.54233415   -0.07413147    0.00000000   3      12  Si
    2.50225889    1.05075017    0.00000000   1      13  H
    2.29956063   -1.61876891    0.00000000   2      14  N
    1.04347983   -2.79818444    0.00000000   3      15  Si
%endblock AtomicCoordinatesAndAtomicSpecies
# Unit Cell
LatticeConstant 1.0 Ang
%block LatticeVectors
       13.852571    0.000000    0.000000
        0.000000   15.841361    0.000000
        0.000000    0.000000    8.754136
%endblock LatticeVectors
%include ../../../Defaults.fdf
************************** End of input data file *****************************

reinit: -----------------------------------------------------------------------
reinit: System Name:
reinit: -----------------------------------------------------------------------
reinit: System Label: Adenine
reinit: -----------------------------------------------------------------------

NOTE on units for spin output:
{S} is the spin magnetic moment, in units of the Bohr magneton,
assuming a g-factor for the electron spin of exactly 2.
The spin magnetic moment is then numerically equal to the charge inbalance,
in units of electrons, between the spin-up and -down channels.

initatom: Reading input for the pseudopotentials and atomic orbitals ----------
Species number:   1 Atomic number:    1 Label: H
Species number:   2 Atomic number:    7 Label: N
Species number:   3 Atomic number:   14 Label: Si

Ground state valence configuration (from tables):   1s01  2p00  3d00  4f00
Ground state valence configuration (from tables):   2s02  2p03  3d00  4f00
Ground state valence configuration (from tables):   3s02  3p02  3d00  4f00

---- Processing specs for species: H
Reading pseudopotential information in formatted form from:
  ../../../Pseudos/VW/H/H.psf

[...]

---- Processing specs for species: Si
Reading pseudopotential information in formatted form from:
  ../../../Pseudos/VW/Si/Si.psf

---- Pseudopotential check for H

Pseudopotential generated from a fully relativistic atomic calculation
There are spin-orbit semi-local pseudopotentials available

Pseudized shells:
1s( 1.00) rc: 0.04
Valence configuration for ps generation: (assumed as above)

[...]

Pseudized shells:
2s( 2.00) rc: 1.00
2p( 3.00) rc: 1.04
3d( 0.00) rc: 2.87
Valence configuration for ps generation: (assumed as above)

---- Pseudopotential check for Si

Pseudopotential generated from a fully relativistic atomic calculation
There are spin-orbit semi-local pseudopotentials available

Pseudized shells:
3s( 2.00) rc: 1.67
3p( 2.00) rc: 1.99
3d( 0.00) rc: 2.04
Valence configuration for ps generation: (assumed as above)
For H, standard SIESTA heuristics set lmxkb to 2
 (one more than the basis l, including polarization orbitals).
Use PS.lmax or PS.KBprojectors blocks to override.
For N, standard SIESTA heuristics set lmxkb to 3
 (one more than the basis l, including polarization orbitals).
Use PS.lmax or PS.KBprojectors blocks to override.
For Si, standard SIESTA heuristics set lmxkb to 3
 (one more than the basis l, including polarization orbitals).
Use PS.lmax or PS.KBprojectors blocks to override.
../../../Pseudos/VW/H/H.psf pseudopotential only contains V_ls up to l=0 -- lmxkb reset.
../../../Pseudos/VW/N/N.psf pseudopotential only contains V_ls up to l=2 -- lmxkb reset.
../../../Pseudos/VW/Si/Si.psf pseudopotential only contains V_ls up to l=2 -- lmxkb reset.

<basis_specs>
H                    Z=   1    Mass=  1.0080        Charge= 0.17977+309
Lmxo=1 Lmxkb= 0    BasisType=split      Semic=F
L=0  Nsemic=0  Cnfigmx=1
          i=1  nzeta=2  polorb=1  (1s)  (to be polarized perturbatively)
            splnorm:   0.62000
               vcte:    40.000
               rinn:  -0.90000
               qcoe:    0.0000
               qyuk:    0.0000
               qwid:   0.10000E-01
                rcs:    0.0000      0.0000
            lambdas:    1.0000      1.0000
L=1  Nsemic=0  Cnfigmx=2
          i=1  nzeta=0  polorb=0  (2p)  (perturbative polarization orbital) (from 1s)
</basis_specs>

Filter: Requested cutoff:  290.000000 Ry
Using PAO.SplitTailNorm
atom: Called for H                     (Z =   1)
NOTE: H pseudopotential has channels up to l= 0
NOTE: PAOs with higher l will be generated with V_local
Maximum radius (at nrval) set to   50.00000 8518

read_vps: Pseudopotential generation method:
read_vps: ATM4.2.7  Troullier-Martins
Valence charge in pseudo generation:    1.00000

xc_check: Exchange-correlation functional:
xc_check: VDW Dion-Rydberg-Schroeder-Langreth-Lundqvist
V l=0 = -2*Zval/r beyond r=  0.0399
All V_l potentials equal beyond r=  0.0399
This should be close to max(r_c) in ps generation
All pots = -2*Zval/r beyond r=  0.0399
Using small-core scheme (local charge) for Vlocal

VLOCAL_FROM_CHLOCAL: 99.0% of the norm of Vloc inside  27227.515 Ry
VLOCAL_FROM_CHLOCAL: 99.9% of the norm of Vloc inside  62052.012 Ry
atom: Maximum radius for chlocal:    0.04942
atom: Maximum radius for r*vlocal+2*Zval:    0.04228

KBgen: Kleinman-Bylander projectors:
GHOST: No ghost state for L =  0
KBproj: WARNING: Rc(0)=      0.3608
KBproj: WARNING: Cut off radius for the KB projector too small
   l= 0   rc=  0.360771   el= -0.503243   Ekb=-43.540856   kbcos= -0.003669

KBgen: Total number of Kleinman-Bylander projectors:   1
atom: -------------------------------------------------------------------------

atom: SANKEY-TYPE ORBITALS:
atom: Selected multiple-zeta basis: split

SPLIT: Orbitals with angular momentum L= 0

SPLIT: Basis orbitals for state 1s

SPLIT: PAO cut-off radius determined from an
SPLIT: energy shift=  0.005000 Ry
Split based on tail norm

   izeta = 1
                 lambda =    1.000000
                     rc =    5.772464
                 energy =   -0.497573
                kinetic =    0.983085
    potential(screened) =   -1.480658
       potential(ionic) =   -1.978266
PAO Filter: Cutoff used:  142.10 Ry
PAO Filter: diagnostic kin energy tol:    0.003000 Ry
PAO Filter: Nominal cutoff (before filtering):  117.93 Ry
Filter:    Number of eigenfunctions  of the
           filtering kernel (total, used)= 55 20

   izeta = 2
                 rmatch =    1.631860
              splitnorm =    0.620000
                 energy =    1.774382
                kinetic =    6.071357
    potential(screened) =   -4.296974
       potential(ionic) =   -4.727849
PAO Filter: Cutoff used:  142.10 Ry
PAO Filter: diagnostic kin energy tol:    0.003000 Ry
PAO Filter: Nominal cutoff (before filtering):  901.83 Ry
Filter:    Number of eigenfunctions  of the
           filtering kernel (total, used)= 23  5
*Note: V_local used for l= 1

** Using vlocal for PAOs with L= 1

POLgen: Perturbative polarization orbital with L=  1

POLgen: Polarization orbital for state 1s
*Note: V_local used for lpol= 1

** Using vlocal for PAOs with L= 1
Split based on tail norm

   izeta = 1
                     rc =    5.772464
                 energy =    0.609532
                kinetic =    1.250628
    potential(screened) =   -0.641096
       potential(ionic) =   -1.109550
PAO Filter: diagnostic kin energy tol:    0.003000 Ry
PAO Filter: Nominal cutoff (before filtering):   54.19 Ry
Filter:    Number of eigenfunctions  of the
           filtering kernel (total, used)= 55 20
atom: Total number of Sankey-type orbitals:  5

atm_pop: Valence configuration (for local Pseudopot. screening):
 1s( 1.00)
 2p( 0.00)
Vna: chval, zval:    1.00000   1.00000

Vna:  Cut-off radius for the neutral-atom potential:   5.772464
VNA Filter: diagnostic kinetic energy tol:    0.003000 Ry
VNA Filter: Nominal cutoff (before filtering):31865.46 Ry
VNA Filter: Cutoff used:   290.00 Ry
Filter:    Number of eigenfunctions  of the
           filtering kernel (total, used)= 74 30

atom: _________________________________________________________________________

<basis_specs>
N                    Z=   7    Mass=  14.007        Charge= 0.17977+309
Lmxo=2 Lmxkb= 2    BasisType=split      Semic=F
L=0  Nsemic=0  Cnfigmx=2
          i=1  nzeta=2  polorb=0  (2s)
            splnorm:   0.28000
               vcte:    40.000
               rinn:  -0.90000
               qcoe:    0.0000
               qyuk:    0.0000
               qwid:   0.10000E-01
                rcs:    0.0000      0.0000
            lambdas:    1.0000      1.0000
L=1  Nsemic=0  Cnfigmx=2
          i=1  nzeta=2  polorb=1  (2p)  (to be polarized perturbatively)
            splnorm:   0.28000
               vcte:    40.000
               rinn:  -0.90000
               qcoe:    0.0000
               qyuk:    0.0000
               qwid:   0.10000E-01
                rcs:    0.0000      0.0000
            lambdas:    1.0000      1.0000
L=2  Nsemic=0  Cnfigmx=3
          i=1  nzeta=0  polorb=0  (3d)  (perturbative polarization orbital) (from 2p)
L=0  Nkbl=1  erefs: 0.17977+309
L=1  Nkbl=1  erefs: 0.17977+309
L=2  Nkbl=1  erefs: 0.17977+309
</basis_specs>

Filter: Requested cutoff:  290.000000 Ry
Using PAO.SplitTailNorm
atom: Called for N                     (Z =   7)
Maximum radius (at nrval) set to   50.00000 8518

[...]

xc_check: Exchange-correlation functional:
xc_check: VDW Dion-Rydberg-Schroeder-Langreth-Lundqvist
V l=0 = -2*Zval/r beyond r=  1.6351
V l=1 = -2*Zval/r beyond r=  1.6351
V l=2 = -2*Zval/r beyond r=  3.0728
All V_l potentials equal beyond r=  2.8817
This should be close to max(r_c) in ps generation
All pots = -2*Zval/r beyond r=  3.0728
Using small-core scheme (local charge) for Vlocal

VLOCAL_FROM_CHLOCAL: 99.0% of the norm of Vloc inside      5.227 Ry
[...]
   scf:   11    -5024.654898    -5024.654898    -5024.654898  0.000000 -3.365911  0.000001
     spin moment: {S} , |S| = {   -0.00000   -0.00000   -0.00000 }     0.00000

[...]

        iscf     Eharris(eV)        E_KS(eV)     FreeEng(eV)     dDmax    Ef(eV) dHmax(eV)
   scf:    1    -5024.652768    -5024.654916    -5024.654916  0.000156 -3.365578  0.004855
     spin moment: {S} , |S| = {   -0.00000   -0.00000   -0.00000 }     0.00000
   scf:    2    -5024.654888    -5024.654908    -5024.654908  0.000220 -3.363416  0.012684
     spin moment: {S} , |S| = {   -0.00000   -0.00000   -0.00000 }     0.00000
   scf:    3    -5024.654920    -5024.654917    -5024.654917  0.000153 -3.364852  0.000742
     spin moment: {S} , |S| = {   -0.00000   -0.00000   -0.00000 }     0.00000
   scf:    4    -5024.654917    -5024.654917    -5024.654917  0.000009 -3.364793  0.000314
     spin moment: {S} , |S| = {   -0.00000   -0.00000   -0.00000 }     0.00000
   scf:    5    -5024.654917    -5024.654917    -5024.654917  0.000007 -3.364766  0.000058
     spin moment: {S} , |S| = {   -0.00000   -0.00000   -0.00000 }     0.00000
   scf:    6    -5024.654917    -5024.654917    -5024.654917  0.000002 -3.364764  0.000025
     spin moment: {S} , |S| = {   -0.00000   -0.00000   -0.00000 }     0.00000
   scf:    7    -5024.654917    -5024.654917    -5024.654917  0.000001 -3.364763  0.000010
     spin moment: {S} , |S| = {   -0.00000   -0.00000   -0.00000 }     0.00000
   scf:    8    -5024.654917    -5024.654917    -5024.654917  0.000001 -3.364762  0.000004
     spin moment: {S} , |S| = {   -0.00000   -0.00000   -0.00000 }     0.00000
   scf:    9    -5024.654917    -5024.654917    -5024.654917  0.000000 -3.364763  0.000001
     spin moment: {S} , |S| = {   -0.00000   -0.00000   -0.00000 }     0.00000
   scf:   10    -5024.654917    -5024.654917    -5024.654917  0.000000 -3.364763  0.000001
     spin moment: {S} , |S| = {   -0.00000   -0.00000   -0.00000 }     0.00000

[...]

        iscf     Eharris(eV)        E_KS(eV)     FreeEng(eV)     dDmax    Ef(eV) dHmax(eV)
   scf:    1    -5024.653513    -5024.654959    -5024.654959  0.000133 -3.366040  0.003709
     spin moment: {S} , |S| = {   -0.00000   -0.00000   -0.00000 }     0.00000
   scf:    2    -5024.654947    -5024.654956    -5024.654956  0.000125 -3.364985  0.010670
     spin moment: {S} , |S| = {   -0.00000   -0.00000   -0.00000 }     0.00000
   scf:    3    -5024.654961    -5024.654960    -5024.654960  0.000095 -3.365642  0.000440
     spin moment: {S} , |S| = {   -0.00000   -0.00000   -0.00000 }     0.00000
   scf:    4    -5024.654960    -5024.654960    -5024.654960  0.000003 -3.365632  0.000166
     spin moment: {S} , |S| = {   -0.00000   -0.00000   -0.00000 }     0.00000
   scf:    5    -5024.654960    -5024.654960    -5024.654960  0.000001 -3.365628  0.000050
     spin moment: {S} , |S| = {   -0.00000   -0.00000   -0.00000 }     0.00000
   scf:    6    -5024.654960    -5024.654960    -5024.654960  0.000000 -3.365628  0.000028
     spin moment: {S} , |S| = {   -0.00000   -0.00000   -0.00000 }     0.00000
   scf:    7    -5024.654960    -5024.654960    -5024.654960  0.000000 -3.365628  0.000010
     spin moment: {S} , |S| = {   -0.00000   -0.00000   -0.00000 }     0.00000
   scf:    8    -5024.654960    -5024.654960    -5024.654960  0.000000 -3.365628  0.000003
     spin moment: {S} , |S| = {   -0.00000   -0.00000   -0.00000 }     0.00000
   scf:    9    -5024.654960    -5024.654960    -5024.654960  0.000000 -3.365628  0.000001
     spin moment: {S} , |S| = {   -0.00000   -0.00000   -0.00000 }     0.00000

[...]

        iscf     Eharris(eV)        E_KS(eV)     FreeEng(eV)     dDmax    Ef(eV) dHmax(eV)
   scf:    1    -5024.654890    -5024.654973    -5024.654973  0.000063 -3.365842  0.002388
     spin moment: {S} , |S| = {   -0.00000   -0.00000   -0.00000 }     0.00000
   scf:    2    -5024.654965    -5024.654971    -5024.654971  0.000157 -3.364495  0.006818
     spin moment: {S} , |S| = {   -0.00000   -0.00000   -0.00000 }     0.00000
   scf:    3    -5024.654974    -5024.654973    -5024.654973  0.000111 -3.365454  0.000539
     spin moment: {S} , |S| = {   -0.00000   -0.00000   -0.00000 }     0.00000
   scf:    4    -5024.654973    -5024.654973    -5024.654973  0.000003 -3.365424  0.000289
     spin moment: {S} , |S| = {   -0.00000   -0.00000   -0.00000 }     0.00000
   scf:    5    -5024.654973    -5024.654973    -5024.654973  0.000002 -3.365402  0.000057
     spin moment: {S} , |S| = {   -0.00000   -0.00000   -0.00000 }     0.00000
   scf:    6    -5024.654973    -5024.654973    -5024.654973  0.000000 -3.365399  0.000014
     spin moment: {S} , |S| = {   -0.00000   -0.00000   -0.00000 }     0.00000
   scf:    7    -5024.654973    -5024.654973    -5024.654973  0.000000 -3.365399  0.000006
     spin moment: {S} , |S| = {   -0.00000   -0.00000   -0.00000 }     0.00000
   scf:    8    -5024.654973    -5024.654973    -5024.654973  0.000000 -3.365399  0.000001
     spin moment: {S} , |S| = {   -0.00000   -0.00000   -0.00000 }     0.00000
   scf:    9    -5024.654973    -5024.654973    -5024.654973  0.000000 -3.365399  0.000001
     spin moment: {S} , |S| = {   -0.00000   -0.00000   -0.00000 }     0.00000

[...]

        iscf     Eharris(eV)        E_KS(eV)     FreeEng(eV)     dDmax    Ef(eV) dHmax(eV)
   scf:    1    -5024.654132    -5024.654987    -5024.654987  0.000065 -3.365656  0.001656
     spin moment: {S} , |S| = {   -0.00000   -0.00000   -0.00000 }     0.00000
   scf:    2    -5024.654981    -5024.654985    -5024.654985  0.000090 -3.364645  0.004282
     spin moment: {S} , |S| = {   -0.00000   -0.00000   -0.00000 }     0.00000
   scf:    3    -5024.654987    -5024.654987    -5024.654987  0.000066 -3.365315  0.000360
     spin moment: {S} , |S| = {   -0.00000   -0.00000   -0.00000 }     0.00000
   scf:    4    -5024.654987    -5024.654987    -5024.654987  0.000002 -3.365298  0.000202
     spin moment: {S} , |S| = {   -0.00000   -0.00000   -0.00000 }     0.00000
   scf:    5    -5024.654987    -5024.654987    -5024.654987  0.000001 -3.365286  0.000058
     spin moment: {S} , |S| = {   -0.00000   -0.00000   -0.00000 }     0.00000
   scf:    6    -5024.654987    -5024.654987    -5024.654987  0.000000 -3.365282  0.000009
     spin moment: {S} , |S| = {   -0.00000   -0.00000   -0.00000 }     0.00000
   scf:    7    -5024.654987    -5024.654987    -5024.654987  0.000000 -3.365281  0.000003
     spin moment: {S} , |S| = {   -0.00000   -0.00000   -0.00000 }     0.00000
   scf:    8    -5024.654987    -5024.654987    -5024.654987  0.000000 -3.365281  0.000001
     spin moment: {S} , |S| = {   -0.00000   -0.00000   -0.00000 }     0.00000

[...]

                        Begin Broyden opt. move =     16

outcoor: Atomic coordinates (Ang):
    2.16359530   -5.12990079    0.00000000   1       1  H
    1.26337840   -4.60246620    0.00000000   2       2  N
   -0.31817153   -5.39778491    0.00000000   3       3  Si
   -0.27517286   -6.87364585    0.00000000   1       4  H
   -1.69482165   -4.45270274    0.00000000   2       5  N
   -1.16006198   -2.76542566    0.00000000   3       6  Si
   -1.47944189   -0.57598289    0.00000000   3       7  Si
   -2.99355611    0.27248466    0.00000000   2       8  N
   -3.04881439    1.31449178    0.00000000   1       9  H
   -3.90352564   -0.23742256    0.00000000   1      10  H
   -0.08176579    0.38931016    0.00000000   2      11  N
    1.53795832   -0.07352909    0.00000000   3      12  Si
    2.50276919    1.04953204    0.00000000   1      13  H
    2.25968951   -1.61418933    0.00000000   2      14  N
    1.04699851   -2.80510920    0.00000000   3      15  Si

outcell: Unit cell vectors (Ang):
       13.852571    0.000000    0.000000
        0.000000   15.841361    0.000000
        0.000000    0.000000    8.754136

outcell: Cell vector modules (Ang)   :   13.852571   15.841361    8.754136
outcell: Cell angles (23,13,12) (deg):     90.0000     90.0000     90.0000
outcell: Cell volume (Ang**3)        :   1921.0389
<dSpData1D:S at geom step 16
  <sparsity:sparsity for geom step 16
    nrows_g=155 nrows=8 sparsity=.0474 nnzs=1139, refcount: 8>
  <dData1D:(new from dSpData1D) n=1139, refcount: 1>
refcount: 1>
new_DM -- step:    17
Re-using DM from previous geometries...
Number of DMs in history: 1
 DM extrapolation coefficients:
1   1.00000
New DM after history re-use:
<dSpData2D:SpM extrapolated using coords
  <sparsity:sparsity for geom step 16
    nrows_g=155 nrows=8 sparsity=.0474 nnzs=1139, refcount: 10>
  <dData2D:(temp array for extrapolation) n=1139 m=8, refcount: 1>
refcount: 1>
     spin moment: {S} , |S| = {   -0.00000   -0.00000   -0.00000 }     0.00000

InitMesh: MESH = 150 x 180 x 96 = 2592000
InitMesh: Mesh cutoff (required, used) =   300.000   324.059 Ry
New grid distribution [1]: sub = 2
New grid distribution [2]: sub = 2
New grid distribution [3]: sub = 2
Setting up quadratic distribution...

        iscf     Eharris(eV)        E_KS(eV)     FreeEng(eV)     dDmax    Ef(eV) dHmax(eV)
   scf:    1    -5024.653884    -5024.655012    -5024.655012  0.000107 -3.365658  0.003892
     spin moment: {S} , |S| = {   -0.00000   -0.00000   -0.00000 }     0.00000
   scf:    2    -5024.654992    -5024.655007    -5024.655007  0.000199 -3.363210  0.009730
     spin moment: {S} , |S| = {   -0.00000   -0.00000   -0.00000 }     0.00000
   scf:    3    -5024.655015    -5024.655014    -5024.655014  0.000144 -3.364966  0.000680
     spin moment: {S} , |S| = {   -0.00000   -0.00000   -0.00000 }     0.00000
   scf:    4    -5024.655014    -5024.655014    -5024.655014  0.000004 -3.364918  0.000393
     spin moment: {S} , |S| = {   -0.00000   -0.00000   -0.00000 }     0.00000
   scf:    5    -5024.655014    -5024.655014    -5024.655014  0.000003 -3.364897  0.000088
     spin moment: {S} , |S| = {   -0.00000   -0.00000   -0.00000 }     0.00000
   scf:    6    -5024.655014    -5024.655014    -5024.655014  0.000001 -3.364895  0.000040
     spin moment: {S} , |S| = {   -0.00000   -0.00000   -0.00000 }     0.00000
   scf:    7    -5024.655014    -5024.655014    -5024.655014  0.000001 -3.364894  0.000013
     spin moment: {S} , |S| = {   -0.00000   -0.00000   -0.00000 }     0.00000
   scf:    8    -5024.655014    -5024.655014    -5024.655014  0.000000 -3.364893  0.000003
     spin moment: {S} , |S| = {   -0.00000   -0.00000   -0.00000 }     0.00000
   scf:    9    -5024.655014    -5024.655014    -5024.655014  0.000000 -3.364893  0.000001
     spin moment: {S} , |S| = {   -0.00000   -0.00000   -0.00000 }     0.00000
   scf:   10    -5024.655014    -5024.655014    -5024.655014  0.000000 -3.364893  0.000000
     spin moment: {S} , |S| = {   -0.00000   -0.00000   -0.00000 }     0.00000

SCF Convergence by DM+H criterion
max |DM_out - DM_in|         :     0.0000000661
max |H_out - H_in|      (eV) :     0.0000004772
SCF cycle converged after 10 iterations

Using DM_out to compute the final energy and forces

siesta: E_KS(eV) =            -5024.6550
     spin moment: {S} , |S| = {   -0.00000   -0.00000   -0.00000 }     0.00000

siesta: Atomic forces (eV/Ang):
     1   -0.000476    0.005569    0.000000
     2   -0.003474    0.000719   -0.000000
     3   -0.003583    0.001367    0.000000
     4    0.002156    0.002547    0.000000
     5   -0.002988    0.004110   -0.000000
     6   -0.036538   -0.003836   -0.000000
     7    0.006186    0.001243    0.000000
     8    0.000035   -0.000825   -0.000000
     9    0.003422    0.003811   -0.000000
    10    0.007617    0.000176    0.000000
    11    0.001867    0.004287   -0.000000
    12    0.002341    0.002420   -0.000000
    13    0.002850    0.001554    0.000000
    14    0.001059    0.002365    0.000000
    15    0.000239    0.002036    0.000000
   Tot   -0.019286    0.027544    0.000000
   Max    0.036538
   Res    0.006009    sqrt( Sum f_i^2 / 3N )
   Max    0.007617    constrained

Stress tensor Voigt[x,y,z,yz,xz,xy] (kbar):        0.14        0.19       -0.00        0.00       -0.00       -0.01
(Free)E + p*V (eV/cell)    -5024.7888
Target enthalpy (eV/cell)    -5024.6550

outcoor: Relaxed atomic coordinates (Ang):
    2.16359530   -5.12990079    0.00000000   1       1  H
    1.26337840   -4.60246620    0.00000000   2       2  N
   -0.31817153   -5.39778491    0.00000000   3       3  Si
   -0.27517286   -6.87364585    0.00000000   1       4  H
   -1.69482165   -4.45270274    0.00000000   2       5  N
   -1.16006198   -2.76542566    0.00000000   3       6  Si
   -1.47944189   -0.57598289    0.00000000   3       7  Si
   -2.99355611    0.27248466    0.00000000   2       8  N
   -3.04881439    1.31449178    0.00000000   1       9  H
   -3.90352564   -0.23742256    0.00000000   1      10  H
   -0.08176579    0.38931016    0.00000000   2      11  N
    1.53795832   -0.07352909    0.00000000   3      12  Si
    2.50276919    1.04953204    0.00000000   1      13  H
    2.25968951   -1.61418933    0.00000000   2      14  N
    1.04699851   -2.80510920    0.00000000   3      15  Si

siesta: Program's energy decomposition (eV):
siesta: Ebs     =      -569.082120
siesta: Eions   =      4991.164385
siesta: Ena     =       915.386750
siesta: Ekin    =      1296.930133
siesta: Enl(+so)=      -958.443812
siesta: Eso(nil)=         0.000000
siesta: Edftu   =         0.000000
siesta: DEna    =        11.115421
siesta: DUscf   =         6.506542
siesta: DUext   =         0.000000
siesta: Ex      =     -1196.243843
siesta: Ec      =      -108.741820
siesta: Exc     =     -1304.985663
siesta: EbV     =         0.000000
siesta: eta*DQ  =         0.000000
siesta: Emadel  =         0.000000
siesta: Emeta   =         0.000000
siesta: Emolmec =         0.000000
siesta: Ekinion =         0.000000
siesta: Eharris =     -5024.655014
siesta: Etot    =     -5024.655014
siesta: FreeEng =     -5024.655014

siesta: Final energy (eV):
siesta:  Band Struct. =    -569.082120
siesta:       Kinetic =    1296.930133
siesta:       Hartree =    3176.078218
siesta:         Edftu =       0.000000
siesta:      Eso(nil) =       0.000000
siesta:    Ext. field =       0.000000
siesta:         Exch. =   -1196.243843
siesta:         Corr. =    -108.741820
siesta:     Bulk bias =       0.000000
siesta:   Exch.-corr. =   -1304.985663
siesta:  Ion-electron =   -7477.891617
siesta:       Ion-ion =    -714.786084
siesta:       Ekinion =       0.000000
siesta: D3 dispersion =       0.000000
siesta:         Total =   -5024.655014
siesta:         Fermi =      -3.364893

siesta: Atomic forces (eV/Ang):
siesta:      1   -0.000476    0.005569    0.000000
siesta:      2   -0.003474    0.000719   -0.000000
siesta:      3   -0.003583    0.001367    0.000000
siesta:      4    0.002156    0.002547    0.000000
siesta:      5   -0.002988    0.004110   -0.000000
siesta:      6   -0.036538   -0.003836   -0.000000
siesta:      7    0.006186    0.001243    0.000000
siesta:      8    0.000035   -0.000825   -0.000000
siesta:      9    0.003422    0.003811   -0.000000
siesta:     10    0.007617    0.000176    0.000000
siesta:     11    0.001867    0.004287   -0.000000
siesta:     12    0.002341    0.002420   -0.000000
siesta:     13    0.002850    0.001554    0.000000
siesta:     14    0.001059    0.002365    0.000000
siesta:     15    0.000239    0.002036    0.000000
siesta: ----------------------------------------
siesta:    Tot   -0.019286    0.027544    0.000000

siesta: Stress tensor (static) (eV/Ang**3):
siesta:     0.000089   -0.000009    0.000000
siesta:    -0.000009    0.000120   -0.000000
siesta:    -0.000000    0.000000   -0.000000

siesta: Cell volume =       1921.038926 Ang**3

siesta: Pressure (static):
siesta:                Solid            Molecule  Units
siesta:          -0.00000076         -0.00000074  Ry/Bohr**3
siesta:          -0.00006964         -0.00006825  eV/Ang**3
siesta:          -0.11157607         -0.10935401  kBar
(Free)E+ p_basis*V_orbitals  =       -5016.882434
(Free)Eharris+ p_basis*V_orbitals  =       -5016.882434
     spin moment: {S} , |S| = {   -0.00000   -0.00000   -0.00000 }     0.00000

siesta: Electric dipole (a.u.)  =   -0.388624   -0.597008   -0.000000
siesta: Electric dipole (Debye) =   -0.987785   -1.517443   -0.000000

cite: Please see "Adenine.bib" for an exhaustive BiBTeX file.
cite: Please clearly indicate Siesta version in published work: 5.1-MaX-41-g6ad11e234
cite: This calculation has made use of the following articles
cite: which are encouraged to be cited in a published work.
        Primary SIESTA paper
          DOI: www.doi.org/10.1088/0953-8984/14/11/302
        Spin-orbit coupling (off-site approximation)
          DOI: www.doi.org/10.1088/0953-8984/24/8/086005
        ELPA library
          DOI: www.doi.org/10.1088/0953-8984/26/21/213201

>> End of run:  11-OCT-2024  21:25:29
Job completed