>> Start of run:  17-OCT-2023  10:52:21

reinit: Reading from standard input
reinit: Dumped input in INPUT_TMP.94143
************************** Dump of input data file ****************************
SystemLabel      ribosa
NumberOfAtoms    18
NumberOfSpecies  3
%block ChemicalSpeciesLabel
    1    1  H
    2    8  O
    3   14  Si
%endblock ChemicalSpeciesLabel
# This overrides Defaults.fdf configuration
MD.TypeOfRun                Verlet # CG, Verlet
MD.Steps                    600
MD.Quench                   True
MD.InitialTemperature       10 K
AtomicCoordinatesFormat NotScaledCartesianAng
%block AtomicCoordinatesAndAtomicSpecies
   -0.70874451    8.71626483    1.79121898   1       1  H
   -0.00115591    8.01754401    1.70514593   2       2  O
    0.83250491    7.73127101    3.21678575   3       3  Si
   -0.08903545    6.95761847    4.12722085   1       4  H
    1.15514124    9.07214172    3.85673934   1       5  H
    2.86934562    6.70590658    2.60751977   3       6  Si
    3.82183330    6.78187320    3.76816827   1       7  H
    2.75348308    5.02206910    2.15005908   2       8  O
    2.28589231    4.52354032    0.52588330   3       9  Si
    3.28915034    3.52335398    0.00101543   1      10  H
    0.97532570    3.78759311    0.62834917   1      11  H
    3.43865634    7.88699958    0.65210818   3      12  Si
    3.02000676    9.33777727    0.71693917   1      13  H
    2.19970943    6.49377566   -0.79626550   3      14  Si
    0.78441968    6.96309115   -0.98678890   1      15  H
    2.84435510    6.34065937   -2.15322729   1      16  H
    5.15224344    7.75155493    0.35689047   2      17  O
    5.41834104    7.93550762   -0.58265379   1      18  H
%endblock AtomicCoordinatesAndAtomicSpecies
# Unit Cell
LatticeConstant 1.0 Ang
%block LatticeVectors
    14.215213    0.000000    0.000000
    0.000000   14.093032    0.000000
    0.000000    0.000000   14.526675
%endblock LatticeVectors
%include ../../Defaults.fdf
************************** End of input data file *****************************

reinit: -----------------------------------------------------------------------
reinit: System Name:
reinit: -----------------------------------------------------------------------
reinit: System Label: ribosa
reinit: -----------------------------------------------------------------------

initatom: Reading input for the pseudopotentials and atomic orbitals ----------
Species number:   1 Atomic number:    1 Label: H
Species number:   2 Atomic number:    8 Label: O
Species number:   3 Atomic number:   14 Label: Si

Ground state valence configuration:   1s01
Reading pseudopotential information in formatted form from H.psf

Pseudopotential generated from a relativistic atomic calculation

Valence configuration for pseudopotential generation:
1s( 1.00) rc: 0.01
2p( 0.00) rc: 0.60
3d( 0.00) rc: 1.99
4f( 0.00) rc: 2.49
Ground state valence configuration:   2s02  2p04
Reading pseudopotential information in formatted form from O.psf

[...]

Valence configuration for pseudopotential generation:
2s( 2.00) rc: 0.45
2p( 4.00) rc: 0.92
3d( 0.00) rc: 2.24
4f( 0.00) rc: 0.25
Ground state valence configuration:   3s02  3p02
Reading pseudopotential information in formatted form from Si.psf

Pseudopotential generated from a relativistic atomic calculation

Valence configuration for pseudopotential generation:
3s( 2.00) rc: 1.67
3p( 2.00) rc: 2.04
3d( 0.00) rc: 2.89
4f( 0.00) rc: 2.49
For H, standard SIESTA heuristics set lmxkb to 2
 (one more than the basis l, including polarization orbitals).
Use PS.lmax or PS.KBprojectors blocks to override.
For O, standard SIESTA heuristics set lmxkb to 3
 (one more than the basis l, including polarization orbitals).
Use PS.lmax or PS.KBprojectors blocks to override.
For Si, standard SIESTA heuristics set lmxkb to 3
 (one more than the basis l, including polarization orbitals).
Use PS.lmax or PS.KBprojectors blocks to override.

<basis_specs>
H                    Z=   1    Mass=  1.0100        Charge= 0.17977+309
Lmxo=0 Lmxkb= 2    BasisType=split      Semic=F
L=0  Nsemic=0  Cnfigmx=1
          i=1  nzeta=2  polorb=1  (1s)
            splnorm:   0.62000
               vcte:    0.0000
               rinn:    0.0000
               qcoe:    0.0000
               qyuk:    0.0000
               qwid:   0.10000E-01
                rcs:    0.0000      0.0000
            lambdas:    1.0000      1.0000
L=0  Nkbl=1  erefs: 0.17977+309
L=1  Nkbl=1  erefs: 0.17977+309
L=2  Nkbl=1  erefs: 0.17977+309
</basis_specs>

atom: Called for H                     (Z =   1)

read_vps: Pseudopotential generation method:
read_vps: ATM4.2.7  Troullier-Martins
Valence charge for ps generation:    1.00000

xc_check: Exchange-correlation functional:
xc_check: GGA Perdew, Burke & Ernzerhof 1996
V l=0 = -2*Zval/r beyond r=  0.0098
V l=1 = -2*Zval/r beyond r=  0.5817
V l=2 = -2*Zval/r beyond r=  1.9372
All V_l potentials equal beyond r=  1.9372
This should be close to max(r_c) in ps generation
All pots = -2*Zval/r beyond r=  1.9372

VLOCAL1: 99.0% of the norm of Vloc inside     11.567 Ry
VLOCAL1: 99.9% of the norm of Vloc inside     26.362 Ry
atom: Maximum radius for 4*pi*r*r*local-pseudopot. charge    2.25106
atom: Maximum radius for r*vlocal+2*Zval:    1.91306
GHOST: No ghost state for L =  0
GHOST: No ghost state for L =  1
GHOST: No ghost state for L =  2

KBgen: Kleinman-Bylander projectors:
   l= 0   rc=  2.036604   el= -0.477180   Ekb= -6.081590   kbcos= -0.277285
   l= 1   rc=  2.195416   el=  0.001076   Ekb= -0.926943   kbcos= -0.034643
   l= 2   rc=  2.251056   el=  0.002010   Ekb= -0.130941   kbcos= -0.009788

KBgen: Total number of Kleinman-Bylander projectors:    9
atom: -------------------------------------------------------------------------

atom: SANKEY-TYPE ORBITALS:
atom: Selected multiple-zeta basis: split

SPLIT: Orbitals with angular momentum L= 0

SPLIT: Basis orbitals for state 1s

SPLIT: PAO cut-off radius determined from an
SPLIT: energy shift=  0.002000 Ry

   izeta = 1
                 lambda =    1.000000
                     rc =    6.518340
                 energy =   -0.475305
                kinetic =    0.912139
    potential(screened) =   -1.387444
       potential(ionic) =   -1.907295

   izeta = 2
                 rmatch =    2.141150
              splitnorm =    0.620000
                 energy =    0.566467
                kinetic =    3.772856
    potential(screened) =   -3.206389
       potential(ionic) =   -3.759093

POLgen: Perturbative polarization orbital with L=  1

POLgen: Polarization orbital for state 1s

   izeta = 1
                     rc =    6.518340
                 energy =    0.533861
                kinetic =    1.121086
    potential(screened) =   -0.587225
       potential(ionic) =   -1.053027
atom: Total number of Sankey-type orbitals:  5

atm_pop: Valence configuration (for local Pseudopot. screening):
 1s( 1.00)
Vna: chval, zval:    1.00000   1.00000

Vna:  Cut-off radius for the neutral-atom potential:   6.518340

atom: _________________________________________________________________________

<basis_specs>
O                    Z=   8    Mass=  16.000        Charge= 0.17977+309
Lmxo=1 Lmxkb= 3    BasisType=split      Semic=F
L=0  Nsemic=0  Cnfigmx=2
          i=1  nzeta=2  polorb=0  (2s)
            splnorm:   0.28000
               vcte:    0.0000
               rinn:    0.0000
               qcoe:    0.0000
               qyuk:    0.0000
               qwid:   0.10000E-01
                rcs:    0.0000      0.0000
            lambdas:    1.0000      1.0000
L=1  Nsemic=0  Cnfigmx=2
          i=1  nzeta=2  polorb=1  (2p)
            splnorm:   0.28000
               vcte:    0.0000
               rinn:    0.0000
               qcoe:    0.0000
               qyuk:    0.0000
               qwid:   0.10000E-01
                rcs:    0.0000      0.0000
            lambdas:    1.0000      1.0000
L=0  Nkbl=1  erefs: 0.17977+309
L=1  Nkbl=1  erefs: 0.17977+309
L=2  Nkbl=1  erefs: 0.17977+309
L=3  Nkbl=1  erefs: 0.17977+309
</basis_specs>

[...]

KBgen: Kleinman-Bylander projectors:
   l= 0   rc=  2.243238   el= -1.759686   Ekb=**********   kbcos= -0.171774
   l= 1   rc=  2.328968   el= -0.663873   Ekb=-14.506792   kbcos= -0.519897
   l= 2   rc=  2.573941   el=  0.002031   Ekb= -1.137373   kbcos= -0.019581
   l= 3   rc=  2.606321   el=  0.003153   Ekb= -1.013546   kbcos= -0.003122

[...]

SPLIT: Basis orbitals for state 2p

[...]

POLgen: Polarization orbital for state 2p

[...]

atm_pop: Valence configuration (for local Pseudopot. screening):
 2s( 2.00)
 2p( 4.00)
Vna: chval, zval:    6.00000   6.00000

[...]

<basis_specs>
Si                   Z=  14    Mass=  28.090        Charge= 0.17977+309
Lmxo=1 Lmxkb= 3    BasisType=split      Semic=F
L=0  Nsemic=0  Cnfigmx=3
          i=1  nzeta=2  polorb=0  (3s)
            splnorm:   0.28000
               vcte:    0.0000
               rinn:    0.0000
               qcoe:    0.0000
               qyuk:    0.0000
               qwid:   0.10000E-01
                rcs:    0.0000      0.0000
            lambdas:    1.0000      1.0000
L=1  Nsemic=0  Cnfigmx=3
          i=1  nzeta=2  polorb=1  (3p)
            splnorm:   0.28000
               vcte:    0.0000
               rinn:    0.0000
               qcoe:    0.0000
               qyuk:    0.0000
               qwid:   0.10000E-01
                rcs:    0.0000      0.0000
            lambdas:    1.0000      1.0000
L=0  Nkbl=1  erefs: 0.17977+309
L=1  Nkbl=1  erefs: 0.17977+309
L=2  Nkbl=1  erefs: 0.17977+309
L=3  Nkbl=1  erefs: 0.17977+309
</basis_specs>

atom: Called for Si                    (Z =  14)

read_vps: Pseudopotential generation method:
read_vps: ATM4.2.7  Troullier-Martins
Valence charge for ps generation:    4.00000

xc_check: Exchange-correlation functional:
xc_check: GGA Perdew, Burke & Ernzerhof 1996
V l=0 = -2*Zval/r beyond r=  2.7826
V l=1 = -2*Zval/r beyond r=  2.7826
V l=2 = -2*Zval/r beyond r=  2.9253
V l=3 = -2*Zval/r beyond r=  2.7826
All V_l potentials equal beyond r=  2.8530
This should be close to max(r_c) in ps generation
All pots = -2*Zval/r beyond r=  2.9253

VLOCAL1: 99.0% of the norm of Vloc inside      5.333 Ry
VLOCAL1: 99.9% of the norm of Vloc inside     12.154 Ry
atom: Maximum radius for 4*pi*r*r*local-pseudopot. charge    3.39869
atom: Maximum radius for r*vlocal+2*Zval:    2.96205
GHOST: No ghost state for L =  0
GHOST: No ghost state for L =  1
GHOST: No ghost state for L =  2
GHOST: No ghost state for L =  3

KBgen: Kleinman-Bylander projectors:
   l= 0   rc=  3.075247   el= -0.794092   Ekb=  5.879390   kbcos=  0.167461
   l= 1   rc=  3.153101   el= -0.300068   Ekb=  2.642817   kbcos=  0.058301
   l= 2   rc=  3.273594   el=  0.001958   Ekb= -1.185135   kbcos= -0.104411
   l= 3   rc=  3.232927   el=  0.003046   Ekb= -0.497174   kbcos= -0.015889

KBgen: Total number of Kleinman-Bylander projectors:   16
atom: -------------------------------------------------------------------------

atom: SANKEY-TYPE ORBITALS:
atom: Selected multiple-zeta basis: split

[...]

SPLIT: Basis orbitals for state 3s

[...]

SPLIT: Orbitals with angular momentum L= 1

SPLIT: Basis orbitals for state 3p

[...]
   scf:    6    -2002.551781    -2002.551781    -2002.551781  0.000001 -5.088396  0.000005
     spin moment: S , {S} =    0.00000   0.00000  -0.00000   0.00000
   scf:    7    -2002.551781    -2002.551781    -2002.551781  0.000000 -5.088397  0.000001
     spin moment: S , {S} =    0.00000   0.00000  -0.00000   0.00000

[...]

        iscf     Eharris(eV)        E_KS(eV)     FreeEng(eV)     dDmax    Ef(eV) dHmax(eV)
   scf:    1    -2002.552647    -2002.551786    -2002.551786  0.000149 -5.088327  0.002863
     spin moment: S , {S} =    0.00000   0.00000  -0.00000   0.00000
   scf:    2    -2002.551784    -2002.551786    -2002.551786  0.000062 -5.087684  0.006917
     spin moment: S , {S} =    0.00000   0.00000  -0.00000   0.00000
   scf:    3    -2002.551787    -2002.551787    -2002.551787  0.000043 -5.088011  0.000614
     spin moment: S , {S} =    0.00000   0.00000  -0.00000   0.00000
   scf:    4    -2002.551787    -2002.551787    -2002.551787  0.000005 -5.087903  0.000116
     spin moment: S , {S} =    0.00000   0.00000  -0.00000   0.00000
   scf:    5    -2002.551787    -2002.551787    -2002.551787  0.000002 -5.087864  0.000017
     spin moment: S , {S} =    0.00000   0.00000  -0.00000   0.00000
   scf:    6    -2002.551787    -2002.551787    -2002.551787  0.000001 -5.087859  0.000004
     spin moment: S , {S} =    0.00000   0.00000  -0.00000   0.00000
   scf:    7    -2002.551787    -2002.551787    -2002.551787  0.000000 -5.087858  0.000001
     spin moment: S , {S} =    0.00000   0.00000  -0.00000   0.00000
   scf:    8    -2002.551787    -2002.551787    -2002.551787  0.000000 -5.087858  0.000001
     spin moment: S , {S} =    0.00000   0.00000  -0.00000   0.00000

[...]

        iscf     Eharris(eV)        E_KS(eV)     FreeEng(eV)     dDmax    Ef(eV) dHmax(eV)
   scf:    1    -2002.551708    -2002.551791    -2002.551791  0.000016 -5.088718  0.000368
     spin moment: S , {S} =    0.00000   0.00000  -0.00000   0.00000
   scf:    2    -2002.551791    -2002.551791    -2002.551791  0.000009 -5.088422  0.000528
     spin moment: S , {S} =    0.00000   0.00000  -0.00000   0.00000
   scf:    3    -2002.551791    -2002.551791    -2002.551791  0.000005 -5.088584  0.000069
     spin moment: S , {S} =    0.00000   0.00000  -0.00000   0.00000
   scf:    4    -2002.551791    -2002.551791    -2002.551791  0.000000 -5.088571  0.000023
     spin moment: S , {S} =    0.00000   0.00000  -0.00000   0.00000
   scf:    5    -2002.551791    -2002.551791    -2002.551791  0.000000 -5.088565  0.000002
     spin moment: S , {S} =    0.00000   0.00000  -0.00000   0.00000
   scf:    6    -2002.551791    -2002.551791    -2002.551791  0.000000 -5.088564  0.000001
     spin moment: S , {S} =    0.00000   0.00000  -0.00000   0.00000

[...]

siesta: Temp_ion =       0.003 K

                        Begin MD quenched step =     28

outcoor: Atomic coordinates (Ang):
   -0.70873435    8.71622951    1.79121106   1       1  H
   -0.00114763    8.01753268    1.70514028   2       2  O
    0.83245118    7.73131397    3.21635531   3       3  Si
   -0.08900095    6.95765756    4.12715187   1       4  H
    1.15514613    9.07209211    3.85670958   1       5  H
    2.86943998    6.70571085    2.60740300   3       6  Si
    3.82181023    6.78189278    3.76813824   1       7  H
    2.75347343    5.02208270    2.15003613   2       8  O
    2.28601223    4.52350550    0.52596553   3       9  Si
    3.28914751    3.52336830    0.00101074   1      10  H
    0.97539657    3.78759880    0.62832236   1      11  H
    3.43898887    7.88697343    0.65191857   3      12  Si
    3.02002209    9.33773348    0.71693498   1      13  H
    2.19939405    6.49380265   -0.79642840   3      14  Si
    0.78431748    6.96363074   -0.98696395   1      15  H
    2.84432429    6.34065844   -2.15318699   1      16  H
    5.15223315    7.75155687    0.35690509   2      17  O
    5.41923549    7.93724068   -0.58186013   1      18  H

outcell: Unit cell vectors (Ang):
       14.215213    0.000000    0.000000
        0.000000   14.093032    0.000000
        0.000000    0.000000   14.526675

outcell: Cell vector modules (Ang)   :   14.215213   14.093032   14.526675
outcell: Cell angles (23,13,12) (deg):     90.0000     90.0000     90.0000
outcell: Cell volume (Ang**3)        :   2910.2080
<dSpData1D:S at geom step 28
  <sparsity:sparsity for geom step 28
    nrows_g=154 nrows=34 sparsity=.2080 nnzs=4934, refcount: 8>
  <dData1D:(new from dSpData1D) n=4934, refcount: 1>
refcount: 1>
new_DM -- step:    28
Re-using DM from previous geometries...
Number of DMs in history: 3
  Estimated Rank of xi*xj matrix:            3
 matrix rank:            2
Singular values:
  1.7321      1.7321     0.25083E-07 0.19284E-09
 DM extrapolation coefficients:
1   0.33333
2   0.33333
3   0.33333
New DM after history re-use:
<dSpData2D:SpM extrapolated using coords
  <sparsity:sparsity for geom step 28
    nrows_g=154 nrows=34 sparsity=.2080 nnzs=4934, refcount: 12>
  <dData2D:(temp array for extrapolation) n=4934 m=8, refcount: 1>
refcount: 1>
     spin moment: S , {S} =    0.00000   0.00000  -0.00000   0.00000
No. of atoms with KB's overlaping orbs in proc 0. Max # of overlaps:      17     138
New grid distribution:   1
           1       1:   80    1:   40    1:   27
           2       1:   80    1:   40   28:   54
           3       1:   80    1:   40   55:   81
           4       1:   80   41:   80    1:   27
           5       1:   80   41:   80   28:   54
           6       1:   80   41:   80   55:   81

InitMesh: MESH =   160 x   160 x   162 =     4147200
InitMesh: (bp) =    80 x    80 x    81 =      518400
InitMesh: Mesh cutoff (required, used) =   340.000   343.716 Ry
ExtMesh (bp) on 0 =   184 x   144 x   127 =     3364992
New grid distribution:   2
           1       1:   80    1:   34    1:   15
           2       1:   80    1:   34   16:   81
           3       1:   17   35:   80    1:   15
           4      18:   80   35:   80    1:   15
           5      18:   80   35:   80   16:   81
           6       1:   17   35:   80   16:   81
New grid distribution:   3
           1       1:   29   32:   80    1:   27
           2       1:   80    1:   33   28:   81
           3       1:   24   34:   80   28:   81
           4      30:   80   32:   80    1:   27
           5      25:   80   34:   80   28:   81
           6       1:   80    1:   31    1:   27
Setting up quadratic distribution...
ExtMesh (bp) on 0 =   184 x   138 x   115 =     2920080
PhiOnMesh: Number of (b)points on node 0 =                40800
PhiOnMesh: nlist on node 0 =               732919

        iscf     Eharris(eV)        E_KS(eV)     FreeEng(eV)     dDmax    Ef(eV) dHmax(eV)
   scf:    1    -2002.551851    -2002.551793    -2002.551793  0.000028 -5.088370  0.000520
     spin moment: S , {S} =    0.00000   0.00000  -0.00000   0.00000
   scf:    2    -2002.551793    -2002.551793    -2002.551793  0.000015 -5.088238  0.001298
     spin moment: S , {S} =    0.00000   0.00000  -0.00000   0.00000
   scf:    3    -2002.551793    -2002.551793    -2002.551793  0.000010 -5.088309  0.000092
     spin moment: S , {S} =    0.00000   0.00000  -0.00000   0.00000
   scf:    4    -2002.551793    -2002.551793    -2002.551793  0.000001 -5.088288  0.000020
     spin moment: S , {S} =    0.00000   0.00000  -0.00000   0.00000
   scf:    5    -2002.551793    -2002.551793    -2002.551793  0.000000 -5.088283  0.000003
     spin moment: S , {S} =    0.00000   0.00000  -0.00000   0.00000
   scf:    6    -2002.551793    -2002.551793    -2002.551793  0.000000 -5.088282  0.000001
     spin moment: S , {S} =    0.00000   0.00000  -0.00000   0.00000
   scf:    7    -2002.551793    -2002.551793    -2002.551793  0.000000 -5.088281  0.000000
     spin moment: S , {S} =    0.00000   0.00000  -0.00000   0.00000

SCF Convergence by DM+H criterion
max |DM_out - DM_in|         :     0.0000000405
max |H_out - H_in|      (eV) :     0.0000002709
SCF cycle converged after 7 iterations

Using DM_out to compute the final energy and forces
No. of atoms with KB's overlaping orbs in proc 0. Max # of overlaps:      17     138

siesta: E_KS(eV) =            -2002.5518
     spin moment: S , {S} =    0.00000   0.00000  -0.00000   0.00000

siesta: Atomic forces (eV/Ang):
     1    0.000371   -0.000219    0.001098
     2   -0.001036    0.001755    0.001176
     3   -0.000604    0.000481    0.004580
     4   -0.000273   -0.000172    0.000226
     5    0.000004    0.000135    0.000079
     6    0.001130   -0.000718   -0.001604
     7    0.000004   -0.000035   -0.000066
     8    0.000030   -0.001030    0.000035
     9   -0.001825    0.000130    0.003169
    10    0.000065    0.000056    0.000028
    11   -0.000276   -0.000092    0.000032
    12   -0.001912   -0.000382    0.000384
    13   -0.000004   -0.000069    0.000009
    14    0.002430    0.000810    0.002216
    15    0.000503   -0.000114    0.000107
    16    0.000004    0.000004    0.000150
    17   -0.000480   -0.000215    0.000836
    18   -0.000609   -0.000314   -0.002226
   Tot   -0.002478    0.000012    0.010231
   Max    0.004580
   Res    0.001136    sqrt( Sum f_i^2 / 3N )
   Max    0.004580    constrained

Stress tensor Voigt[x,y,z,yz,xz,xy] (kbar):       -1.03       -0.49       -1.06        0.07       -0.03       -0.04
(Free)E + p*V (eV/cell)    -2000.9891
Target enthalpy (eV/cell)    -2002.5518

siesta: Stress tensor (static) (eV/Ang**3):
        -0.000641   -0.000027   -0.000016
        -0.000027   -0.000309    0.000046
        -0.000016    0.000046   -0.000662

siesta: Pressure (static):          0.86032659  kBar

siesta: Stress tensor (total) (eV/Ang**3):
        -0.000641   -0.000027   -0.000016
        -0.000027   -0.000309    0.000046
        -0.000016    0.000046   -0.000662

siesta: Pressure (total):          0.86032888  kBar

outcoor: Relaxed atomic coordinates (Ang):
   -0.70873435    8.71622951    1.79121106   1       1  H
   -0.00114763    8.01753268    1.70514028   2       2  O
    0.83245118    7.73131397    3.21635531   3       3  Si
   -0.08900095    6.95765756    4.12715187   1       4  H
    1.15514613    9.07209211    3.85670958   1       5  H
    2.86943998    6.70571085    2.60740300   3       6  Si
    3.82181023    6.78189278    3.76813824   1       7  H
    2.75347343    5.02208270    2.15003613   2       8  O
    2.28601223    4.52350550    0.52596553   3       9  Si
    3.28914751    3.52336830    0.00101074   1      10  H
    0.97539657    3.78759880    0.62832236   1      11  H
    3.43898887    7.88697343    0.65191857   3      12  Si
    3.02002209    9.33773348    0.71693498   1      13  H
    2.19939405    6.49380265   -0.79642840   3      14  Si
    0.78431748    6.96363074   -0.98696395   1      15  H
    2.84432429    6.34065844   -2.15318699   1      16  H
    5.15223315    7.75155687    0.35690509   2      17  O
    5.41923549    7.93724068   -0.58186013   1      18  H

siesta: Eigenvalues (eV):
ik =     1
  -24.7184  -24.7184  -24.6958  -24.6958  -24.0593  -24.0593  -14.6717  -14.6717  -14.2692  -14.2692
  -13.6119  -13.6119  -12.7579  -12.7579  -11.9840  -11.9840  -11.4935  -11.4935  -11.1259  -11.1259
   -9.8795   -9.8795   -9.7882   -9.7882   -9.5409   -9.5409   -9.2159   -9.2159   -8.9063   -8.9063
   -8.6645   -8.6645   -8.5418   -8.5418   -8.2785   -8.2785   -7.9197   -7.9197   -7.3945   -7.3945
   -7.2768   -7.2768   -7.1968   -7.1968   -6.6576   -6.6576   -6.2336   -6.2336   -2.2523   -2.2523
   -1.9564   -1.9564   -1.2400   -1.2400   -1.1312   -1.1312   -0.7793   -0.7793   -0.3134   -0.3134
    0.0574    0.0574    0.2791    0.2791    0.4134    0.4134    0.6897    0.6897    0.9400    0.9400
    1.1769    1.1769    1.3239    1.3239    1.4765    1.4765    1.6603    1.6603    1.8342    1.8342
    2.0840    2.0840    2.7677    2.7677    2.9510    2.9510    3.2491    3.2491    3.6553    3.6553
    3.9808    3.9808    4.2623    4.2623    4.9505    4.9505    5.0992    5.0992    5.3981    5.3981
    5.6253    5.6253    5.7798    5.7798    6.0169    6.0169    6.2936    6.2936    6.5251    6.5251
    6.9544    6.9544    7.2668    7.2668    7.5350    7.5350    7.8907    7.8907    8.3960    8.3960
    8.8567    8.8567    8.9444    8.9444    9.4816    9.4816    9.7161    9.7161    9.9184    9.9184
   10.1686   10.1686   10.4384   10.4384   10.8298   10.8298   10.9216   10.9216   11.3963   11.3963
   11.9228   11.9228   12.2471   12.2471   12.5464   12.5464   12.9427   12.9427   13.3568   13.3568
   13.4589   13.4589   13.8750   13.8750   14.8106   14.8106   15.2173   15.2173   15.4805   15.4805
   15.8519   15.8519   16.1361   16.1361   16.3090   16.3090   16.3942   16.3942   16.8426   16.8426
   17.2150   17.2150   17.4650   17.4650   17.8660   17.8660   18.5989   18.5989   18.8874   18.8874
   19.4113   19.4113   20.0979   20.0979   20.2826   20.2826   20.4118   20.4118   21.1493   21.1493
   21.5846   21.5846   21.7323   21.7323   22.0600   22.0600   22.3549   22.3549   22.5059   22.5059
   22.8857   22.8857   23.3826   23.3826   23.7077   23.7077   23.8720   23.8720   24.3451   24.3451
   24.7586   24.7586   25.1307   25.1307   25.5402   25.5402   25.8221   25.8221   26.3669   26.3669
   26.8787   26.8787   27.4037   27.4037   28.1493   28.1493   28.6916   28.6916   29.4948   29.4948
   30.2150   30.2150   31.0619   31.0619   33.7456   33.7456   36.5158   36.5158   36.8771   36.8771
   37.0333   37.0333   38.6857   38.6857   39.2526   39.2526   40.2160   40.2160   41.2833   41.2833
   44.9562   44.9562   46.6939   46.6939   47.4277   47.4277   47.9769   47.9769   48.7881   48.7881
   49.1959   49.1959   49.8313   49.8313   50.7314   50.7314   51.2429   51.2429   52.2841   52.2841
   53.1643   53.1643   54.0850   54.0850   55.0549   55.0549   56.8225   56.8225   57.1591   57.1591
   58.6862   58.6862   59.1435   59.1435   60.0888   60.0888   61.2249   61.2249   62.0300   62.0300
   62.4893   62.4893   62.7563   62.7563   66.5629   66.5629   80.7619   80.7619   90.4383   90.4383
   91.9856   91.9856   94.2223   94.2223   98.8713   98.8713  101.5120  101.5120
siesta: Fermi energy =      -5.088281 eV

siesta: Program's energy decomposition (eV):
siesta: Ebs     =      -557.763839
siesta: Eions   =      1993.464565
siesta: Ena     =       122.932259
siesta: Ekin    =      1459.375719
siesta: Enl     =     -1042.759949
siesta: Eso     =        -0.002361
siesta: Edftu   =         0.000000
siesta: DEna    =       -12.650887
siesta: DUscf   =         6.882098
siesta: DUext   =         0.000000
siesta: Exc     =      -542.864107
siesta: eta*DQ  =         0.000000
siesta: Emadel  =         0.000000
siesta: Emeta   =         0.000000
siesta: Emolmec =         0.000000
siesta: Ekinion =         0.000006
siesta: Eharris =     -2002.551786
siesta: Etot    =     -2002.551786
siesta: FreeEng =     -2002.551786

siesta: Final energy (eV):
siesta:  Band Struct. =    -557.763839
siesta:       Kinetic =    1459.375719
siesta:       Hartree =    3285.457838
siesta:       Edftu   =       0.000000
siesta:       Eso     =      -0.002361
siesta:    Ext. field =       0.000000
siesta:   Exch.-corr. =    -542.864107
siesta:  Ion-electron =   -7884.260358
siesta:       Ion-ion =    1679.741476
siesta:       Ekinion =       0.000006
siesta:         Total =   -2002.551786
siesta:         Fermi =      -5.088281

siesta: Stress tensor (static) (eV/Ang**3):
siesta:    -0.000641   -0.000027   -0.000016
siesta:    -0.000027   -0.000309    0.000046
siesta:    -0.000016    0.000046   -0.000662

siesta: Cell volume =       2910.207998 Ang**3

siesta: Pressure (static):
siesta:                Solid            Molecule  Units
siesta:           0.00000585          0.00000584  Ry/Bohr**3
siesta:           0.00053697          0.00053643  eV/Ang**3
siesta:           0.86032659          0.85947011  kBar
(Free)E+ p_basis*V_orbitals  =       -1990.909304
(Free)Eharris+ p_basis*V_orbitals  =       -1990.909304
     spin moment: S , {S} =    0.00000   0.00000  -0.00000   0.00000

siesta: Electric dipole (a.u.)  =   -0.410177    0.716771   -0.409389
siesta: Electric dipole (Debye) =   -1.042566    1.821852   -1.040565

cite: Please see "ribosa.bib" for an exhaustive BiBTeX file.
cite: Please clearly indicate Siesta version in published work: v4.1.5-1-g384057250
cite: This calculation has made use of the following articles
cite: which are encouraged to be cited in a published work.
        Primary SIESTA paper
          DOI: www.doi.org/10.1088/0953-8984/14/11/302
        Spin-orbit coupling (on-site approximation)
          DOI: www.doi.org/10.1088/0953-8984/19/19/489001

WARNING: alloc-realloc-dealloc name mismatch
         Name: atomlist isa
         Node:     0
         Subsequent mismatches will not be reported
>> End of run:  17-OCT-2023  11:08:07
Job completed