>> Start of run:  19-FEB-2024  17:48:19

reinit: Reading from standard input
reinit: Dumped input in INPUT_TMP.96303
************************** Dump of input data file ****************************
SystemLabel      desoxy1
NumberOfAtoms    18
NumberOfSpecies  3
%block ChemicalSpeciesLabel
    1    1  H
    2    8  O
    3   14  Si
%endblock ChemicalSpeciesLabel
# This overrides Defaults.fdf configuration
MD.TypeOfRun                Verlet
MD.Steps                    2000
MD.Quench                   True
AtomicCoordinatesFormat NotScaledCartesianAng
%block AtomicCoordinatesAndAtomicSpecies
    -0.708734350     8.716229510     1.791211060    1
    -0.001147630     8.017532680     1.705140280    2
     0.832451180     7.731313970     3.216355310    3
    -0.089000950     6.957657560     4.127151870    1
     1.155146130     9.072092110     3.856709580    1
     2.869439980     6.705710850     2.607403000    3
     3.821810230     6.781892780     3.768138240    1
     2.753473430     5.022082700     2.150036130    2
     2.286012230     4.523505500     0.525965530    3
     3.289147510     3.523368300     0.001010740    1
     0.975396570     3.787598800     0.628322360    1
     3.438988870     7.886973430     0.651918570    3
     3.020022090     9.337733480     0.716934980    1
     2.199394050     6.493802650    -0.796428400    3
     0.784317480     6.963630740    -0.986963950    1
     2.844324290     6.340658440    -2.153186990    1
     5.152233150     7.751556870     0.356905090    2
     5.419235490     7.937240680    -0.581860130    1
%endblock AtomicCoordinatesAndAtomicSpecies
# Unit Cell
LatticeConstant 1.0 Ang
%block LatticeVectors
    14.329350    0.000000     0.000000
    0.000000     14.017284    0.000000
    0.000000     0.000000     14.628130
%endblock LatticeVectors
%include ../../Defaults.fdf
************************** End of input data file *****************************

reinit: -----------------------------------------------------------------------
reinit: System Name:
reinit: -----------------------------------------------------------------------
reinit: System Label: desoxy1
reinit: -----------------------------------------------------------------------

initatom: Reading input for the pseudopotentials and atomic orbitals ----------
Species number:   1 Atomic number:    1 Label: H
Species number:   2 Atomic number:    8 Label: O
Species number:   3 Atomic number:   14 Label: Si

Ground state valence configuration:   1s01
Reading pseudopotential information in formatted form from H.psf

Pseudopotential generated from a relativistic atomic calculation

Valence configuration for pseudopotential generation:
1s( 1.00) rc: 0.01
2p( 0.00) rc: 0.60
3d( 0.00) rc: 1.99
4f( 0.00) rc: 2.49
Ground state valence configuration:   2s02  2p04
Reading pseudopotential information in formatted form from O.psf

[...]

Valence configuration for pseudopotential generation:
2s( 2.00) rc: 0.45
2p( 4.00) rc: 0.92
3d( 0.00) rc: 2.24
4f( 0.00) rc: 0.25
Ground state valence configuration:   3s02  3p02
Reading pseudopotential information in formatted form from Si.psf

Pseudopotential generated from a relativistic atomic calculation

Valence configuration for pseudopotential generation:
3s( 2.00) rc: 1.67
3p( 2.00) rc: 2.04
3d( 0.00) rc: 2.89
4f( 0.00) rc: 2.49
For H, standard SIESTA heuristics set lmxkb to 2
 (one more than the basis l, including polarization orbitals).
Use PS.lmax or PS.KBprojectors blocks to override.
For O, standard SIESTA heuristics set lmxkb to 3
 (one more than the basis l, including polarization orbitals).
Use PS.lmax or PS.KBprojectors blocks to override.
For Si, standard SIESTA heuristics set lmxkb to 3
 (one more than the basis l, including polarization orbitals).
Use PS.lmax or PS.KBprojectors blocks to override.

<basis_specs>
H                    Z=   1    Mass=  1.0100        Charge= 0.17977+309
Lmxo=0 Lmxkb= 2    BasisType=split      Semic=F
L=0  Nsemic=0  Cnfigmx=1
          i=1  nzeta=2  polorb=1  (1s)
            splnorm:   0.62000
               vcte:    0.0000
               rinn:    0.0000
               qcoe:    0.0000
               qyuk:    0.0000
               qwid:   0.10000E-01
                rcs:    0.0000      0.0000
            lambdas:    1.0000      1.0000
L=0  Nkbl=1  erefs: 0.17977+309
L=1  Nkbl=1  erefs: 0.17977+309
L=2  Nkbl=1  erefs: 0.17977+309
</basis_specs>

atom: Called for H                     (Z =   1)

read_vps: Pseudopotential generation method:
read_vps: ATM4.2.7  Troullier-Martins
Valence charge for ps generation:    1.00000

xc_check: Exchange-correlation functional:
xc_check: GGA Perdew, Burke & Ernzerhof 1996
V l=0 = -2*Zval/r beyond r=  0.0098
V l=1 = -2*Zval/r beyond r=  0.5817
V l=2 = -2*Zval/r beyond r=  1.9372
All V_l potentials equal beyond r=  1.9372
This should be close to max(r_c) in ps generation
All pots = -2*Zval/r beyond r=  1.9372

VLOCAL1: 99.0% of the norm of Vloc inside     11.567 Ry
VLOCAL1: 99.9% of the norm of Vloc inside     26.362 Ry
atom: Maximum radius for 4*pi*r*r*local-pseudopot. charge    2.25106
atom: Maximum radius for r*vlocal+2*Zval:    1.91306
GHOST: No ghost state for L =  0
GHOST: No ghost state for L =  1
GHOST: No ghost state for L =  2

KBgen: Kleinman-Bylander projectors:
   l= 0   rc=  2.036604   el= -0.477180   Ekb= -6.081590   kbcos= -0.277285
   l= 1   rc=  2.195416   el=  0.001076   Ekb= -0.926943   kbcos= -0.034643
   l= 2   rc=  2.251056   el=  0.002010   Ekb= -0.130941   kbcos= -0.009788

KBgen: Total number of Kleinman-Bylander projectors:    9
atom: -------------------------------------------------------------------------

atom: SANKEY-TYPE ORBITALS:
atom: Selected multiple-zeta basis: split

SPLIT: Orbitals with angular momentum L= 0

SPLIT: Basis orbitals for state 1s

SPLIT: PAO cut-off radius determined from an
SPLIT: energy shift=  0.002000 Ry

   izeta = 1
                 lambda =    1.000000
                     rc =    6.518340
                 energy =   -0.475305
                kinetic =    0.912139
    potential(screened) =   -1.387444
       potential(ionic) =   -1.907295

   izeta = 2
                 rmatch =    2.141150
              splitnorm =    0.620000
                 energy =    0.566467
                kinetic =    3.772856
    potential(screened) =   -3.206389
       potential(ionic) =   -3.759093

POLgen: Perturbative polarization orbital with L=  1

POLgen: Polarization orbital for state 1s

   izeta = 1
                     rc =    6.518340
                 energy =    0.533861
                kinetic =    1.121086
    potential(screened) =   -0.587225
       potential(ionic) =   -1.053027
atom: Total number of Sankey-type orbitals:  5

atm_pop: Valence configuration (for local Pseudopot. screening):
 1s( 1.00)
Vna: chval, zval:    1.00000   1.00000

Vna:  Cut-off radius for the neutral-atom potential:   6.518340

atom: _________________________________________________________________________

<basis_specs>
O                    Z=   8    Mass=  16.000        Charge= 0.17977+309
Lmxo=1 Lmxkb= 3    BasisType=split      Semic=F
L=0  Nsemic=0  Cnfigmx=2
          i=1  nzeta=2  polorb=0  (2s)
            splnorm:   0.28000
               vcte:    0.0000
               rinn:    0.0000
               qcoe:    0.0000
               qyuk:    0.0000
               qwid:   0.10000E-01
                rcs:    0.0000      0.0000
            lambdas:    1.0000      1.0000
L=1  Nsemic=0  Cnfigmx=2
          i=1  nzeta=2  polorb=1  (2p)
            splnorm:   0.28000
               vcte:    0.0000
               rinn:    0.0000
               qcoe:    0.0000
               qyuk:    0.0000
               qwid:   0.10000E-01
                rcs:    0.0000      0.0000
            lambdas:    1.0000      1.0000
L=0  Nkbl=1  erefs: 0.17977+309
L=1  Nkbl=1  erefs: 0.17977+309
L=2  Nkbl=1  erefs: 0.17977+309
L=3  Nkbl=1  erefs: 0.17977+309
</basis_specs>

[...]

KBgen: Kleinman-Bylander projectors:
   l= 0   rc=  2.243238   el= -1.759686   Ekb=**********   kbcos= -0.171774
   l= 1   rc=  2.328968   el= -0.663873   Ekb=-14.506792   kbcos= -0.519897
   l= 2   rc=  2.573941   el=  0.002031   Ekb= -1.137373   kbcos= -0.019581
   l= 3   rc=  2.606321   el=  0.003153   Ekb= -1.013546   kbcos= -0.003122

[...]

SPLIT: Basis orbitals for state 2p

[...]

POLgen: Polarization orbital for state 2p

[...]

atm_pop: Valence configuration (for local Pseudopot. screening):
 2s( 2.00)
 2p( 4.00)
Vna: chval, zval:    6.00000   6.00000

[...]

<basis_specs>
Si                   Z=  14    Mass=  28.090        Charge= 0.17977+309
Lmxo=1 Lmxkb= 3    BasisType=split      Semic=F
L=0  Nsemic=0  Cnfigmx=3
          i=1  nzeta=2  polorb=0  (3s)
            splnorm:   0.28000
               vcte:    0.0000
               rinn:    0.0000
               qcoe:    0.0000
               qyuk:    0.0000
               qwid:   0.10000E-01
                rcs:    0.0000      0.0000
            lambdas:    1.0000      1.0000
L=1  Nsemic=0  Cnfigmx=3
          i=1  nzeta=2  polorb=1  (3p)
            splnorm:   0.28000
               vcte:    0.0000
               rinn:    0.0000
               qcoe:    0.0000
               qyuk:    0.0000
               qwid:   0.10000E-01
                rcs:    0.0000      0.0000
            lambdas:    1.0000      1.0000
L=0  Nkbl=1  erefs: 0.17977+309
L=1  Nkbl=1  erefs: 0.17977+309
L=2  Nkbl=1  erefs: 0.17977+309
L=3  Nkbl=1  erefs: 0.17977+309
</basis_specs>

atom: Called for Si                    (Z =  14)

read_vps: Pseudopotential generation method:
read_vps: ATM4.2.7  Troullier-Martins
Valence charge for ps generation:    4.00000

xc_check: Exchange-correlation functional:
xc_check: GGA Perdew, Burke & Ernzerhof 1996
V l=0 = -2*Zval/r beyond r=  2.7826
V l=1 = -2*Zval/r beyond r=  2.7826
V l=2 = -2*Zval/r beyond r=  2.9253
V l=3 = -2*Zval/r beyond r=  2.7826
All V_l potentials equal beyond r=  2.8530
This should be close to max(r_c) in ps generation
All pots = -2*Zval/r beyond r=  2.9253

VLOCAL1: 99.0% of the norm of Vloc inside      5.333 Ry
VLOCAL1: 99.9% of the norm of Vloc inside     12.154 Ry
atom: Maximum radius for 4*pi*r*r*local-pseudopot. charge    3.39869
atom: Maximum radius for r*vlocal+2*Zval:    2.96205
GHOST: No ghost state for L =  0
GHOST: No ghost state for L =  1
GHOST: No ghost state for L =  2
GHOST: No ghost state for L =  3

KBgen: Kleinman-Bylander projectors:
   l= 0   rc=  3.075247   el= -0.794092   Ekb=  5.879390   kbcos=  0.167461
   l= 1   rc=  3.153101   el= -0.300068   Ekb=  2.642817   kbcos=  0.058301
   l= 2   rc=  3.273594   el=  0.001958   Ekb= -1.185135   kbcos= -0.104411
   l= 3   rc=  3.232927   el=  0.003046   Ekb= -0.497174   kbcos= -0.015889

KBgen: Total number of Kleinman-Bylander projectors:   16
atom: -------------------------------------------------------------------------

atom: SANKEY-TYPE ORBITALS:
atom: Selected multiple-zeta basis: split

[...]

SPLIT: Basis orbitals for state 3s

[...]

SPLIT: Orbitals with angular momentum L= 1

SPLIT: Basis orbitals for state 3p

SPLIT: PAO cut-off radius determined from an
SPLIT: energy shift=  0.002000 Ry

   izeta = 1
                 lambda =    1.000000
[...]
    2.21389664    6.47079030   -0.83038886   3      14  Si
    0.80624635    7.00799323   -0.97577360   1      15  H
    2.86543337    6.30714428   -2.19354179   1      16  H
    5.19326887    7.70990316    0.32449592   2      17  O
    5.46459273    7.97879616   -0.59064462   1      18  H

outcell: Unit cell vectors (Ang):
       14.329350    0.000000    0.000000
        0.000000   14.017284    0.000000
        0.000000    0.000000   14.628130

outcell: Cell vector modules (Ang)   :   14.329350   14.017284   14.628130
outcell: Cell angles (23,13,12) (deg):     90.0000     90.0000     90.0000
outcell: Cell volume (Ang**3)        :   2938.1853
<dSpData1D:S at geom step 295
  <sparsity:sparsity for geom step 295
    nrows_g=154 nrows=8 sparsity=.0497 nnzs=1178, refcount: 8>
  <dData1D:(new from dSpData1D) n=1178, refcount: 1>
refcount: 1>
new_DM -- step:   295
Re-using DM from previous geometries...
Number of DMs in history: 3
  Estimated Rank of xi*xj matrix:            3
 matrix rank:            2
Singular values:
  1.7321      1.7321     0.61494E-08 0.11485E-09
 DM extrapolation coefficients:
1   0.33333
2   0.33333
3   0.33333
New DM after history re-use:
<dSpData2D:SpM extrapolated using coords
  <sparsity:sparsity for geom step 295
    nrows_g=154 nrows=8 sparsity=.0497 nnzs=1178, refcount: 12>
  <dData2D:(temp array for extrapolation) n=1178 m=8, refcount: 1>
refcount: 1>
     spin moment: S , {S} =    0.00000  -0.00000  -0.00000   0.00000
No. of atoms with KB's overlaping orbs in proc 0. Max # of overlaps:      17     138
New grid distribution:   1
           1       1:   80    1:   20    1:   12
           2       1:   80    1:   20   13:   24
           3       1:   80    1:   20   25:   35
           4       1:   80    1:   20   36:   46
           5       1:   80    1:   20   47:   57
           6       1:   80    1:   20   58:   68
           7       1:   80    1:   20   69:   79
           8       1:   80    1:   20   80:   90
           9       1:   80   21:   40    1:   12
          10       1:   80   21:   40   13:   24
          11       1:   80   21:   40   25:   35
          12       1:   80   21:   40   36:   46
          13       1:   80   21:   40   47:   57
          14       1:   80   21:   40   58:   68
          15       1:   80   21:   40   69:   79
          16       1:   80   21:   40   80:   90
          17       1:   80   41:   60    1:   12
          18       1:   80   41:   60   13:   24
          19       1:   80   41:   60   25:   35
          20       1:   80   41:   60   36:   46
          21       1:   80   41:   60   47:   57
          22       1:   80   41:   60   58:   68
          23       1:   80   41:   60   69:   79
          24       1:   80   41:   60   80:   90
          25       1:   80   61:   80    1:   12
          26       1:   80   61:   80   13:   24
          27       1:   80   61:   80   25:   35
          28       1:   80   61:   80   36:   46
          29       1:   80   61:   80   47:   57
          30       1:   80   61:   80   58:   68
          31       1:   80   61:   80   69:   79
          32       1:   80   61:   80   80:   90

InitMesh: MESH =   160 x   160 x   180 =     4608000
InitMesh: (bp) =    80 x    80 x    90 =      576000
InitMesh: Mesh cutoff (required, used) =   340.000   344.579 Ry
ExtMesh (bp) on 0 =   184 x   124 x   124 =     2829184
New grid distribution:   2
           1      18:   80    1:   32    9:   16
           2       1:   17   48:   80    1:    8
           3      17:   80    1:   32   17:   76
           4      18:   80   40:   46    1:    8
           5       1:   17    1:   31    9:   16
           6       1:   17   40:   47    9:   16
           7       1:   16    1:   30   69:   90
           8      17:   80    1:   31   77:   90
           9      18:   80    1:   32    1:    8
          10      18:   80   40:   46    9:   16
          11      17:   80   33:   39   17:   76
          12       1:   16   33:   39   17:   68
          13       1:   16    1:   32   17:   68
          14       1:   17   48:   80   17:   33
          15       1:   17    1:   31    1:    8
          16       1:   16   31:   39   69:   90
          17      18:   80   47:   80    1:    8
          18      18:   80   33:   39    1:    8
          19       1:   17   40:   47   17:   33
          20       1:   17   47:   80   34:   90
          21      18:   80   40:   47   17:   72
          22       1:   17   40:   46   34:   90
          23       1:   17   32:   39    1:    8
          24      18:   80   40:   46   73:   90
          25      18:   80   47:   80    9:   16
          26       1:   17   48:   80    9:   16
          27      18:   80   48:   80   17:   72
          28       1:   17   40:   47    1:    8
          29      17:   80   32:   39   77:   90
          30      18:   80   33:   39    9:   16
          31       1:   17   32:   39    9:   16
          32      18:   80   47:   80   73:   90
New grid distribution:   3
           1      25:   80    1:   26    1:   13
           2       1:   24    1:   24   14:   30
           3       1:   24   25:   40   14:   30
           4      22:   80    1:   32   31:   77
           5       1:   21    1:   30   31:   74
           6      30:   80   41:   51   14:   30
           7       1:   21    1:   21   75:   90
           8      22:   80    1:   25   78:   90
           9       1:   24    1:   21    1:   13
          10      25:   80    1:   30   14:   30
          11      25:   80   31:   40   14:   30
          12      22:   80   33:   39   31:   77
          13      25:   80   40:   47   31:   77
          14       1:   21   31:   39   31:   74
          15       1:   29   41:   54   15:   30
          16      22:   80   26:   39   78:   90
          17       1:   29   56:   80    1:   14
          18      30:   80   52:   80   14:   30
          19       1:   29   55:   80   15:   30
          20       1:   29   41:   55    1:   14
          21      25:   80   27:   40    1:   13
          22       1:   24   40:   49   31:   70
          23       1:   24   40:   52   71:   90
          24      25:   80   51:   80   78:   90
          25      30:   80   53:   80    1:   13
          26      25:   80   40:   50   78:   90
          27       1:   21   22:   39   75:   90
          28      25:   80   48:   80   31:   77
          29       1:   24   50:   80   31:   70
          30      30:   80   41:   52    1:   13
          31       1:   24   22:   40    1:   13
          32       1:   24   53:   80   71:   90
Setting up quadratic distribution...
ExtMesh (bp) on 0 =   167 x   136 x   120 =     2725440
PhiOnMesh: Number of (b)points on node 0 =                16128
PhiOnMesh: nlist on node 0 =               171738

        iscf     Eharris(eV)        E_KS(eV)     FreeEng(eV)     dDmax    Ef(eV) dHmax(eV)
   scf:    1    -2002.485407    -2002.485376    -2002.485376  0.000009 -5.035714  0.000215
     spin moment: S , {S} =    0.00000  -0.00000  -0.00000   0.00000
   scf:    2    -2002.485376    -2002.485376    -2002.485376  0.000008 -5.035840  0.000388
     spin moment: S , {S} =    0.00000  -0.00000  -0.00000   0.00000
   scf:    3    -2002.485376    -2002.485376    -2002.485376  0.000004 -5.035760  0.000027
     spin moment: S , {S} =    0.00000  -0.00000  -0.00000   0.00000
   scf:    4    -2002.485376    -2002.485376    -2002.485376  0.000000 -5.035763  0.000008
     spin moment: S , {S} =    0.00000  -0.00000  -0.00000   0.00000
   scf:    5    -2002.485376    -2002.485376    -2002.485376  0.000000 -5.035765  0.000003
     spin moment: S , {S} =    0.00000  -0.00000  -0.00000   0.00000
   scf:    6    -2002.485376    -2002.485376    -2002.485376  0.000000 -5.035766  0.000001
     spin moment: S , {S} =    0.00000  -0.00000  -0.00000   0.00000

SCF Convergence by DM+H criterion
max |DM_out - DM_in|         :     0.0000000584
max |H_out - H_in|      (eV) :     0.0000007609
SCF cycle converged after 6 iterations

Using DM_out to compute the final energy and forces
No. of atoms with KB's overlaping orbs in proc 0. Max # of overlaps:      17     138

siesta: E_KS(eV) =            -2002.4854
     spin moment: S , {S} =    0.00000  -0.00000  -0.00000   0.00000

siesta: Atomic forces (eV/Ang):
     1   -0.000063    0.000031   -0.000250
     2    0.000013    0.000211   -0.000368
     3   -0.000610    0.000085    0.001118
     4   -0.000320   -0.000028    0.000213
     5   -0.000118   -0.000102   -0.000037
     6   -0.002171    0.000134    0.004945
     7    0.000175   -0.000034    0.000320
     8    0.000060   -0.000183    0.000180
     9   -0.000221    0.000138    0.000209
    10   -0.000037    0.000112    0.000056
    11    0.000033   -0.000053    0.000025
    12   -0.000731   -0.000427    0.001340
    13    0.000004    0.000065   -0.000006
    14    0.000015   -0.002606    0.000397
    15    0.000002   -0.000010   -0.000006
    16    0.000001   -0.000015   -0.000006
    17    0.000033    0.000145   -0.000154
    18   -0.000048   -0.000019    0.000055
   Tot   -0.003982   -0.002557    0.008032
   Max    0.004945
   Res    0.000872    sqrt( Sum f_i^2 / 3N )
   Max    0.004945    constrained

Stress tensor Voigt[x,y,z,yz,xz,xy] (kbar):       -0.49       -0.27       -0.21       -0.11       -0.17       -0.21
(Free)E + p*V (eV/cell)    -2001.8905
Target enthalpy (eV/cell)    -2002.4854

siesta: Stress tensor (static) (eV/Ang**3):
        -0.000306   -0.000129   -0.000103
        -0.000129   -0.000169   -0.000066
        -0.000103   -0.000066   -0.000132

siesta: Pressure (static):          0.32436512  kBar

siesta: Stress tensor (total) (eV/Ang**3):
        -0.000306   -0.000129   -0.000103
        -0.000129   -0.000169   -0.000066
        -0.000103   -0.000066   -0.000132

siesta: Pressure (total):          0.32436684  kBar

outcoor: Relaxed atomic coordinates (Ang):
   -0.79284798    8.65893139    1.79143394   1       1  H
   -0.00107347    8.06087277    1.70776284   2       2  O
    0.81938702    7.70991496    3.21379462   3       3  Si
   -0.08903353    6.92118527    4.14429593   1       4  H
    1.16450247    9.02317209    3.90148740   1       5  H
    2.86851770    6.67717066    2.59679883   3       6  Si
    3.76198503    6.74522935    3.81885187   1       7  H
    2.77562817    4.99591512    2.11192789   2       8  O
    2.29175416    4.49837906    0.49797261   3       9  Si
    3.31462667    3.50424406    0.00008690   1      10  H
    0.98322988    3.76692620    0.64968342   1      11  H
    3.47898013    7.84024274    0.62815852   3      12  Si
    3.04457816    9.28782589    0.65020138   1      13  H
    2.21389664    6.47079030   -0.83038886   3      14  Si
    0.80624635    7.00799323   -0.97577360   1      15  H
    2.86543337    6.30714428   -2.19354179   1      16  H
    5.19326887    7.70990316    0.32449592   2      17  O
    5.46459273    7.97879616   -0.59064462   1      18  H

siesta: Eigenvalues (eV):
ik =     1
  -24.6927  -24.6927  -24.6802  -24.6802  -24.0205  -24.0205  -14.6398  -14.6398  -14.2580  -14.2580
  -13.6381  -13.6381  -12.7464  -12.7464  -11.9834  -11.9834  -11.4592  -11.4592  -11.1172  -11.1172
   -9.8516   -9.8516   -9.7618   -9.7618   -9.5389   -9.5389   -9.1527   -9.1527   -8.8891   -8.8891
   -8.6466   -8.6466   -8.5353   -8.5353   -8.2581   -8.2581   -7.8735   -7.8735   -7.4039   -7.4039
   -7.2703   -7.2703   -7.2016   -7.2016   -6.6365   -6.6365   -6.2190   -6.2190   -2.2397   -2.2397
   -1.9385   -1.9385   -1.2790   -1.2790   -1.1195   -1.1195   -0.7696   -0.7696   -0.3398   -0.3398
   -0.0228   -0.0228    0.2650    0.2650    0.4244    0.4244    0.6940    0.6940    0.9147    0.9147
    1.1228    1.1228    1.3545    1.3545    1.4742    1.4742    1.6606    1.6606    1.7719    1.7719
    2.0279    2.0279    2.7012    2.7012    2.9377    2.9377    3.3040    3.3040    3.6652    3.6652
    3.9708    3.9708    4.1601    4.1601    4.9111    4.9111    5.0850    5.0850    5.3673    5.3673
    5.6175    5.6175    5.7639    5.7639    5.9630    5.9630    6.2802    6.2802    6.4679    6.4679
    6.9263    6.9263    7.2876    7.2876    7.5799    7.5799    7.8391    7.8391    8.3432    8.3432
    8.8742    8.8742    8.9114    8.9114    9.5141    9.5141    9.6651    9.6651    9.8510    9.8510
   10.0590   10.0590   10.4577   10.4577   10.8607   10.8607   10.9974   10.9974   11.3778   11.3778
   11.8756   11.8756   12.1378   12.1378   12.4348   12.4348   12.8872   12.8872   13.1671   13.1671
   13.4252   13.4252   13.7981   13.7981   14.7607   14.7607   15.1456   15.1456   15.3623   15.3623
   15.6914   15.6914   15.9806   15.9806   16.0839   16.0839   16.1986   16.1986   16.7935   16.7935
   17.0340   17.0340   17.3239   17.3239   17.6517   17.6517   18.5191   18.5191   18.7986   18.7986
   19.4163   19.4163   19.8851   19.8851   20.0788   20.0788   20.3118   20.3118   20.9943   20.9943
   21.5100   21.5100   21.6356   21.6356   22.0367   22.0367   22.2112   22.2112   22.4685   22.4685
   22.8174   22.8174   23.1091   23.1091   23.4132   23.4132   23.7948   23.7948   24.3805   24.3805
   24.8417   24.8417   25.0606   25.0606   25.4239   25.4239   25.8261   25.8261   26.2917   26.2917
   26.7866   26.7866   27.2125   27.2125   28.2707   28.2707   28.4910   28.4910   29.2995   29.2995
   30.0610   30.0610   30.7919   30.7919   33.7787   33.7787   36.1827   36.1827   36.6609   36.6609
   37.1078   37.1078   38.8190   38.8190   39.3214   39.3214   40.1000   40.1000   41.2721   41.2721
   45.1701   45.1701   46.6925   46.6925   47.5168   47.5168   47.9095   47.9095   48.7339   48.7339
   48.7954   48.7954   49.7645   49.7645   50.6336   50.6336   51.1831   51.1831   52.1538   52.1538
   53.0370   53.0370   53.7805   53.7805   55.0379   55.0379   56.8437   56.8437   57.3591   57.3591
   58.4994   58.4994   58.8600   58.8600   60.1372   60.1372   61.0921   61.0921   61.5695   61.5695
   61.8282   61.8282   62.1057   62.1057   66.7090   66.7090   80.8138   80.8138   90.6111   90.6111
   92.0860   92.0860   93.9798   93.9798   99.3476   99.3476  101.7095  101.7095
siesta: Fermi energy =      -5.035766 eV

siesta: Program's energy decomposition (eV):
siesta: Ebs     =      -556.948714
siesta: Eions   =      1993.464565
siesta: Ena     =       123.021942
siesta: Ekin    =      1458.199939
siesta: Enl     =     -1042.456455
siesta: Eso     =        -0.002341
siesta: Edftu   =         0.000000
siesta: DEna    =       -12.275443
siesta: DUscf   =         6.835774
siesta: DUext   =         0.000000
siesta: Exc     =      -542.344226
siesta: eta*DQ  =         0.000000
siesta: Emadel  =         0.000000
siesta: Emeta   =         0.000000
siesta: Emolmec =         0.000000
siesta: Ekinion =         0.000005
siesta: Eharris =     -2002.485371
siesta: Etot    =     -2002.485371
siesta: FreeEng =     -2002.485371

siesta: Final energy (eV):
siesta:  Band Struct. =    -556.948714
siesta:       Kinetic =    1458.199939
siesta:       Hartree =    3275.351962
siesta:       Edftu   =       0.000000
siesta:       Eso     =      -0.002341
siesta:    Ext. field =       0.000000
siesta:   Exch.-corr. =    -542.344226
siesta:  Ion-electron =   -7862.736708
siesta:       Ion-ion =    1669.045998
siesta:       Ekinion =       0.000005
siesta:         Total =   -2002.485371
siesta:         Fermi =      -5.035766

siesta: Stress tensor (static) (eV/Ang**3):
siesta:    -0.000306   -0.000129   -0.000103
siesta:    -0.000129   -0.000169   -0.000066
siesta:    -0.000103   -0.000066   -0.000132

siesta: Cell volume =       2938.185251 Ang**3

siesta: Pressure (static):
siesta:                Solid            Molecule  Units
siesta:           0.00000220          0.00000219  Ry/Bohr**3
siesta:           0.00020245          0.00020141  eV/Ang**3
siesta:           0.32436512          0.32269308  kBar
(Free)E+ p_basis*V_orbitals  =       -1990.842887
(Free)Eharris+ p_basis*V_orbitals  =       -1990.842887
     spin moment: S , {S} =    0.00000  -0.00000  -0.00000   0.00000

siesta: Electric dipole (a.u.)  =   -0.478051    0.691101   -0.431956
siesta: Electric dipole (Debye) =   -1.215086    1.756605   -1.097923

cite: Please see "desoxy1.bib" for an exhaustive BiBTeX file.
cite: Please clearly indicate Siesta version in published work: v4.1.5-1-g384057250
cite: This calculation has made use of the following articles
cite: which are encouraged to be cited in a published work.
        Primary SIESTA paper
          DOI: www.doi.org/10.1088/0953-8984/14/11/302
        Spin-orbit coupling (on-site approximation)
          DOI: www.doi.org/10.1088/0953-8984/19/19/489001

WARNING: alloc-realloc-dealloc name mismatch
         Name: atomlist isa
         Node:     0
         Subsequent mismatches will not be reported
>> End of run:  19-FEB-2024  18:32:30
Job completed