>> Start of run:  12-MAY-2023  23:21:35

reinit: Reading from standard input
reinit: Dumped input in INPUT_TMP.33981
************************** Dump of input data file ****************************
# mpirun -np 4 siesta-4.1.5 < Cytosine.fdf > Cytosine.out
SystemLabel      Cytosine
NumberOfAtoms    13
NumberOfSpecies  4
%block ChemicalSpeciesLabel
    1   14  Si
    2    7  N
    3    1  H
    4    8  O
%endblock ChemicalSpeciesLabel
# This overrides Defaults.fdf conf
MD.TypeOfRun                CG # CG, Verlet
MD.Steps                    0
AtomicCoordinatesFormat NotScaledCartesianAng
%block AtomicCoordinatesAndAtomicSpecies
   -1.51311446    0.54171652   -0.00000000   1       1  Si
   -1.66951810   -1.70667169    0.00000000   1       2  Si
    1.56631404    0.69146633   -0.00000000   1       3  Si
    0.42933873   -2.35241710   -0.00000000   1       4  Si
   -0.02413785    1.33263830   -0.00000000   2       5  N
   -2.87376223    1.63830712    0.00000000   2       6  N
    1.70315409   -1.12772840   -0.00000000   2       7  N
   -2.80258630   -2.68458504   -0.00000000   3       8  H
    0.98751256   -3.75690762   -0.00000000   3       9  H
   -3.87800911    1.34078184   -0.00000000   3      10  H
   -2.71828565    2.68271005   -0.00000000   3      11  H
    2.96638692    1.43135303   -0.00000000   4      12  O
    2.71855408   -1.43251806    0.00000000   3      13  H
%endblock AtomicCoordinatesAndAtomicSpecies
%include ../../Defaults.fdf
************************** End of input data file *****************************

reinit: -----------------------------------------------------------------------
reinit: System Name:
reinit: -----------------------------------------------------------------------
reinit: System Label: Cytosine
reinit: -----------------------------------------------------------------------

initatom: Reading input for the pseudopotentials and atomic orbitals ----------
Species number:   1 Atomic number:   14 Label: Si
Species number:   2 Atomic number:    7 Label: N
Species number:   3 Atomic number:    1 Label: H
Species number:   4 Atomic number:    8 Label: O

Ground state valence configuration:   3s02  3p02
Reading pseudopotential information in formatted form from Si.psf

Pseudopotential generated from a relativistic atomic calculation

Valence configuration for pseudopotential generation:
3s( 2.00) rc: 1.67
3p( 2.00) rc: 2.04
3d( 0.00) rc: 2.89
4f( 0.00) rc: 2.49
Ground state valence configuration:   2s02  2p03
Reading pseudopotential information in formatted form from N.psf

[...]

Valence configuration for pseudopotential generation:
2s( 2.00) rc: 0.94
2p( 3.00) rc: 0.59
3d( 0.00) rc: 3.46
4f( 0.00) rc: 2.47
Ground state valence configuration:   1s01
Reading pseudopotential information in formatted form from H.psf

[...]

Valence configuration for pseudopotential generation:
1s( 1.00) rc: 0.01
2p( 0.00) rc: 0.60
3d( 0.00) rc: 1.99
4f( 0.00) rc: 2.49
Ground state valence configuration:   2s02  2p04
Reading pseudopotential information in formatted form from O.psf

Pseudopotential generated from a relativistic atomic calculation

Valence configuration for pseudopotential generation:
2s( 2.00) rc: 0.45
2p( 4.00) rc: 0.92
3d( 0.00) rc: 2.24
4f( 0.00) rc: 0.25
For Si, standard SIESTA heuristics set lmxkb to 3
 (one more than the basis l, including polarization orbitals).
Use PS.lmax or PS.KBprojectors blocks to override.
For N, standard SIESTA heuristics set lmxkb to 3
 (one more than the basis l, including polarization orbitals).
Use PS.lmax or PS.KBprojectors blocks to override.
For H, standard SIESTA heuristics set lmxkb to 2
 (one more than the basis l, including polarization orbitals).
Use PS.lmax or PS.KBprojectors blocks to override.
For O, standard SIESTA heuristics set lmxkb to 3
 (one more than the basis l, including polarization orbitals).
Use PS.lmax or PS.KBprojectors blocks to override.

<basis_specs>
Si                   Z=  14    Mass=  28.090        Charge= 0.17977+309
Lmxo=1 Lmxkb= 3    BasisType=split      Semic=F
L=0  Nsemic=0  Cnfigmx=3
          i=1  nzeta=2  polorb=0  (3s)
            splnorm:   0.28000
               vcte:    0.0000
               rinn:    0.0000
               qcoe:    0.0000
               qyuk:    0.0000
               qwid:   0.10000E-01
                rcs:    0.0000      0.0000
            lambdas:    1.0000      1.0000
L=1  Nsemic=0  Cnfigmx=3
          i=1  nzeta=2  polorb=1  (3p)
            splnorm:   0.28000
               vcte:    0.0000
               rinn:    0.0000
               qcoe:    0.0000
               qyuk:    0.0000
               qwid:   0.10000E-01
                rcs:    0.0000      0.0000
            lambdas:    1.0000      1.0000
L=0  Nkbl=1  erefs: 0.17977+309
L=1  Nkbl=1  erefs: 0.17977+309
L=2  Nkbl=1  erefs: 0.17977+309
L=3  Nkbl=1  erefs: 0.17977+309
</basis_specs>

atom: Called for Si                    (Z =  14)

read_vps: Pseudopotential generation method:
read_vps: ATM4.2.7  Troullier-Martins
Valence charge for ps generation:    4.00000

xc_check: Exchange-correlation functional:
xc_check: GGA Perdew, Burke & Ernzerhof 1996
V l=0 = -2*Zval/r beyond r=  2.7826
V l=1 = -2*Zval/r beyond r=  2.7826
V l=2 = -2*Zval/r beyond r=  2.9253
V l=3 = -2*Zval/r beyond r=  2.7826
All V_l potentials equal beyond r=  2.8530
This should be close to max(r_c) in ps generation
All pots = -2*Zval/r beyond r=  2.9253

VLOCAL1: 99.0% of the norm of Vloc inside      5.333 Ry
VLOCAL1: 99.9% of the norm of Vloc inside     12.154 Ry
atom: Maximum radius for 4*pi*r*r*local-pseudopot. charge    3.39869
atom: Maximum radius for r*vlocal+2*Zval:    2.96205
GHOST: No ghost state for L =  0
GHOST: No ghost state for L =  1
GHOST: No ghost state for L =  2
GHOST: No ghost state for L =  3

KBgen: Kleinman-Bylander projectors:
   l= 0   rc=  3.075247   el= -0.794092   Ekb=  5.879390   kbcos=  0.167461
   l= 1   rc=  3.153101   el= -0.300068   Ekb=  2.642817   kbcos=  0.058301
   l= 2   rc=  3.273594   el=  0.001958   Ekb= -1.185135   kbcos= -0.104411
   l= 3   rc=  3.232927   el=  0.003046   Ekb= -0.497174   kbcos= -0.015889

KBgen: Total number of Kleinman-Bylander projectors:   16
atom: -------------------------------------------------------------------------

atom: SANKEY-TYPE ORBITALS:
atom: Selected multiple-zeta basis: split

SPLIT: Orbitals with angular momentum L= 0

SPLIT: Basis orbitals for state 3s

SPLIT: PAO cut-off radius determined from an
SPLIT: energy shift=  0.002000 Ry

   izeta = 1
                 lambda =    1.000000
                     rc =    6.429618
                 energy =   -0.792283
                kinetic =    0.525293
    potential(screened) =   -1.317576
       potential(ionic) =   -3.744923

   izeta = 2
                 rmatch =    3.998416
              splitnorm =    0.280000
                 energy =   -0.583081
                kinetic =    1.069570
    potential(screened) =   -1.652651
       potential(ionic) =   -4.235185

[...]

SPLIT: Basis orbitals for state 3p

[...]

POLgen: Perturbative polarization orbital with L=  2

POLgen: Polarization orbital for state 3p

   izeta = 1
                     rc =    8.464845
                 energy =    0.321949
                kinetic =    1.055677
    potential(screened) =   -0.733728
       potential(ionic) =   -2.672950
atom: Total number of Sankey-type orbitals: 13

atm_pop: Valence configuration (for local Pseudopot. screening):
 3s( 2.00)
 3p( 2.00)
Vna: chval, zval:    4.00000   4.00000

Vna:  Cut-off radius for the neutral-atom potential:   8.464845

atom: _________________________________________________________________________

[...]

KBgen: Kleinman-Bylander projectors:
   l= 0   rc=  3.417763   el= -1.365098   Ekb= -4.433130   kbcos= -0.707855
   l= 1   rc=  3.375302   el= -0.521201   Ekb=-13.264039   kbcos= -0.535594
   l= 2   rc=  3.872880   el=  0.001991   Ekb= -0.641094   kbcos= -0.062456
   l= 3   rc=  3.970931   el=  0.003093   Ekb= -0.474517   kbcos= -0.018236

[...]

<basis_specs>
H                    Z=   1    Mass=  1.0100        Charge= 0.17977+309
Lmxo=0 Lmxkb= 2    BasisType=split      Semic=F
L=0  Nsemic=0  Cnfigmx=1
          i=1  nzeta=2  polorb=1  (1s)
            splnorm:   0.62000
               vcte:    0.0000
               rinn:    0.0000
               qcoe:    0.0000
               qyuk:    0.0000
               qwid:   0.10000E-01
                rcs:    0.0000      0.0000
            lambdas:    1.0000      1.0000
L=0  Nkbl=1  erefs: 0.17977+309
L=1  Nkbl=1  erefs: 0.17977+309
L=2  Nkbl=1  erefs: 0.17977+309
</basis_specs>

[...]

KBgen: Kleinman-Bylander projectors:
   l= 0   rc=  2.036604   el= -0.477180   Ekb= -6.081590   kbcos= -0.277285
   l= 1   rc=  2.195416   el=  0.001076   Ekb= -0.926943   kbcos= -0.034643
   l= 2   rc=  2.251056   el=  0.002010   Ekb= -0.130941   kbcos= -0.009788

[...]

POLgen: Polarization orbital for state 1s

[...]

atm_pop: Valence configuration (for local Pseudopot. screening):
 1s( 1.00)
Vna: chval, zval:    1.00000   1.00000

[...]

<basis_specs>
O                    Z=   8    Mass=  16.000        Charge= 0.17977+309
Lmxo=1 Lmxkb= 3    BasisType=split      Semic=F
L=0  Nsemic=0  Cnfigmx=2
          i=1  nzeta=2  polorb=0  (2s)
            splnorm:   0.28000
               vcte:    0.0000
               rinn:    0.0000
               qcoe:    0.0000
               qyuk:    0.0000
               qwid:   0.10000E-01
                rcs:    0.0000      0.0000
            lambdas:    1.0000      1.0000
L=1  Nsemic=0  Cnfigmx=2
          i=1  nzeta=2  polorb=1  (2p)
            splnorm:   0.28000
               vcte:    0.0000
               rinn:    0.0000
               qcoe:    0.0000
               qyuk:    0.0000
               qwid:   0.10000E-01
                rcs:    0.0000      0.0000
            lambdas:    1.0000      1.0000
L=0  Nkbl=1  erefs: 0.17977+309
L=1  Nkbl=1  erefs: 0.17977+309
L=2  Nkbl=1  erefs: 0.17977+309
L=3  Nkbl=1  erefs: 0.17977+309
</basis_specs>

atom: Called for O                     (Z =   8)

read_vps: Pseudopotential generation method:
read_vps: ATM4.2.7  Troullier-Martins
Valence charge for ps generation:    6.00000

xc_check: Exchange-correlation functional:
xc_check: GGA Perdew, Burke & Ernzerhof 1996
V l=0 = -2*Zval/r beyond r=  1.1000
V l=1 = -2*Zval/r beyond r=  1.1000
V l=2 = -2*Zval/r beyond r=  2.2154
V l=3 = -2*Zval/r beyond r=  1.1000
All V_l potentials equal beyond r=  2.2154
This should be close to max(r_c) in ps generation
All pots = -2*Zval/r beyond r=  2.2154

VLOCAL1: 99.0% of the norm of Vloc inside      8.845 Ry
VLOCAL1: 99.9% of the norm of Vloc inside     20.157 Ry
atom: Maximum radius for 4*pi*r*r*local-pseudopot. charge    2.67231
atom: Maximum radius for r*vlocal+2*Zval:    2.32897
GHOST: No ghost state for L =  0
GHOST: No ghost state for L =  1
GHOST: No ghost state for L =  2
GHOST: No ghost state for L =  3

KBgen: Kleinman-Bylander projectors:
   l= 0   rc=  2.243238   el= -1.759686   Ekb=**********   kbcos= -0.171774
   l= 1   rc=  2.328968   el= -0.663873   Ekb=-14.506792   kbcos= -0.519897
   l= 2   rc=  2.573941   el=  0.002031   Ekb= -1.137373   kbcos= -0.019581
[...]
InitMesh: Mesh cutoff (required, used) =   340.000   406.348 Ry
ExtMesh (bp) on 0 =   202 x   157 x   142 =     4503388
New grid distribution:   2
           1       1:   68    1:   65    1:   60
           2      69:   90    1:   65    1:   60
           3      26:   90   66:   90    1:   60
           4       1:   25   66:   90    1:   60
New grid distribution:   3
           1       1:   55    1:   55    1:   60
           2      56:   90    1:   55    1:   60
           3       1:   57   56:   90    1:   60
           4      58:   90   56:   90    1:   60
Setting up quadratic distribution...
ExtMesh (bp) on 0 =   180 x   177 x   172 =     5479920
PhiOnMesh: Number of (b)points on node 0 =               265200
PhiOnMesh: nlist on node 0 =              1495665

stepf: Fermi-Dirac step function

siesta: Program's energy decomposition (eV):
siesta: Ebs     =      -274.971569
siesta: Eions   =      1544.210757
siesta: Ena     =       161.806605
siesta: Ekin    =      1421.926690
siesta: Enl     =     -1351.096445
siesta: Eso     =        -0.001693
siesta: Edftu   =         0.000000
siesta: DEna    =        56.055201
siesta: DUscf   =        33.936437
siesta: DUext   =         0.000000
siesta: Exc     =      -510.763622
siesta: eta*DQ  =         0.000000
siesta: Emadel  =         0.000000
siesta: Emeta   =         0.000000
siesta: Emolmec =         0.000000
siesta: Ekinion =         0.000000
siesta: Eharris =     -1704.138057
siesta: Etot    =     -1732.347585
siesta: FreeEng =     -1732.348970

        iscf     Eharris(eV)        E_KS(eV)     FreeEng(eV)     dDmax    Ef(eV) dHmax(eV)
   scf:    1    -1704.138057    -1732.347585    -1732.348970  0.965112 -4.890800 21.014686
     spin moment: S , {S} =    0.00836  -0.00000   0.00000   0.00836
   scf:    2    -1757.368102    -1748.010746    -1748.010749  0.163556 -4.674288  8.824565
     spin moment: S , {S} =    0.00007   0.00000  -0.00000   0.00007
   scf:    3    -1750.442135    -1749.700632    -1749.700632  0.067637 -4.289256  6.620559
     spin moment: S , {S} =    0.00004  -0.00000  -0.00000   0.00004
   scf:    4    -1750.265652    -1750.080207    -1750.080207  0.037504 -4.164813  2.531327
     spin moment: S , {S} =    0.00001   0.00000  -0.00000   0.00001
   scf:    5    -1750.329700    -1750.236174    -1750.236174  0.023147 -4.459910  1.684191
     spin moment: S , {S} =    0.00001  -0.00000  -0.00000   0.00001
   scf:    6    -1750.395407    -1750.312729    -1750.312729  0.025965 -4.351635  0.450990
     spin moment: S , {S} =    0.00000  -0.00000  -0.00000   0.00000
   scf:    7    -1750.350382    -1750.330870    -1750.330870  0.011180 -4.372661  0.216004
     spin moment: S , {S} =    0.00000  -0.00000   0.00000   0.00000
   scf:    8    -1750.342222    -1750.336360    -1750.336360  0.004964 -4.373225  0.114427
     spin moment: S , {S} =    0.00000  -0.00000   0.00000   0.00000
   scf:    9    -1750.344487    -1750.340119    -1750.340119  0.005403 -4.379388  0.058177
     spin moment: S , {S} =    0.00000  -0.00000   0.00000   0.00000
   scf:   10    -1750.343692    -1750.341653    -1750.341653  0.004869 -4.374922  0.020488
     spin moment: S , {S} =    0.00000   0.00000   0.00000   0.00000
   scf:   11    -1750.342003    -1750.341810    -1750.341810  0.001561 -4.369850  0.009472
     spin moment: S , {S} =    0.00000   0.00000   0.00000  -0.00000
   scf:   12    -1750.341886    -1750.341844    -1750.341844  0.000779 -4.368479  0.005938
     spin moment: S , {S} =    0.00000   0.00000   0.00000  -0.00000
   scf:   13    -1750.341868    -1750.341855    -1750.341855  0.000403 -4.366984  0.003354
     spin moment: S , {S} =    0.00000   0.00000   0.00000   0.00000
   scf:   14    -1750.341865    -1750.341859    -1750.341859  0.000271 -4.366172  0.001771
     spin moment: S , {S} =    0.00000   0.00000   0.00000   0.00000
   scf:   15    -1750.341861    -1750.341860    -1750.341860  0.000089 -4.365879  0.001208
     spin moment: S , {S} =    0.00000   0.00000   0.00000   0.00000
   scf:   16    -1750.341862    -1750.341861    -1750.341861  0.000110 -4.365658  0.000514
     spin moment: S , {S} =    0.00000   0.00000   0.00000   0.00000
   scf:   17    -1750.341861    -1750.341861    -1750.341861  0.000038 -4.365679  0.000199
     spin moment: S , {S} =    0.00000   0.00000   0.00000   0.00000
   scf:   18    -1750.341861    -1750.341861    -1750.341861  0.000016 -4.365683  0.000120
     spin moment: S , {S} =    0.00000   0.00000   0.00000   0.00000
   scf:   19    -1750.341861    -1750.341861    -1750.341861  0.000010 -4.365667  0.000076
     spin moment: S , {S} =    0.00000   0.00000   0.00000  -0.00000
   scf:   20    -1750.341861    -1750.341861    -1750.341861  0.000007 -4.365660  0.000052
     spin moment: S , {S} =    0.00000   0.00000   0.00000  -0.00000
   scf:   21    -1750.341861    -1750.341861    -1750.341861  0.000006 -4.365654  0.000028
     spin moment: S , {S} =    0.00000   0.00000   0.00000  -0.00000
   scf:   22    -1750.341861    -1750.341861    -1750.341861  0.000005 -4.365655  0.000014
     spin moment: S , {S} =    0.00000   0.00000   0.00000  -0.00000
   scf:   23    -1750.341861    -1750.341861    -1750.341861  0.000002 -4.365653  0.000008
     spin moment: S , {S} =    0.00000   0.00000   0.00000   0.00000
   scf:   24    -1750.341861    -1750.341861    -1750.341861  0.000001 -4.365652  0.000004
     spin moment: S , {S} =    0.00000   0.00000   0.00000   0.00000
mix: Pulay -- resetting history
   scf:   25    -1750.341861    -1750.341861    -1750.341861  0.000000 -4.365652  0.000002
     spin moment: S , {S} =    0.00000   0.00000   0.00000   0.00000
   scf:   26    -1750.341861    -1750.341861    -1750.341861  0.000000 -4.365653  0.000001
     spin moment: S , {S} =    0.00000   0.00000   0.00000   0.00000
   scf:   27    -1750.341861    -1750.341861    -1750.341861  0.000000 -4.365653  0.000000
     spin moment: S , {S} =    0.00000   0.00000   0.00000   0.00000

SCF Convergence by DM+H criterion
max |DM_out - DM_in|         :     0.0000000895
max |H_out - H_in|      (eV) :     0.0000004718
SCF cycle converged after 27 iterations

Using DM_out to compute the final energy and forces
No. of atoms with KB's overlaping orbs in proc 0. Max # of overlaps:      13     125

siesta: E_KS(eV) =            -1750.3419

siesta: E_KS - E_eggbox =     -1750.3419
     spin moment: S , {S} =    0.00000   0.00000   0.00000   0.00000

siesta: Atomic forces (eV/Ang):
     1    0.002781    0.005460   -0.000000
     2    0.000247    0.002723    0.000000
     3   -0.005438    0.002602    0.000000
     4   -0.003563    0.002599    0.000000
     5    0.004374   -0.004333    0.000000
     6    0.028273    0.009987    0.000000
     7   -0.007224   -0.008846   -0.000000
     8   -0.148917   -0.176250   -0.000000
     9   -0.025084    0.223835   -0.000000
    10   -0.159112   -0.055420   -0.000000
    11   -0.035659    0.014636    0.000000
    12    0.583986    0.441626   -0.000000
    13    0.002373   -0.090568    0.000000
   Tot    0.237036    0.368052    0.000000
   Max    0.583986
   Res    0.131977    sqrt( Sum f_i^2 / 3N )
   Max    0.583986    constrained

Stress tensor Voigt[x,y,z,yz,xz,xy] (kbar):       -1.31        0.45       -0.14        0.00        0.00       -0.65
(Free)E + p*V (eV/cell)    -1749.8956
Target enthalpy (eV/cell)    -1750.3419

mulliken: Atomic and Orbital Populations:

Species: Si

Atom      Orb        Charge      Spin       Svec
    1  9 3Pdxy      0.26618   0.00000      0.000  -0.000  -0.000
    1 10 3Pdyz      0.13254   0.00000     -0.000   0.000   0.000
    1 11 3Pdz2      0.00991   0.00000      0.000  -0.000   0.000
    1 12 3Pdxz      0.15551   0.00000      0.000   0.000  -0.000
    1 13 3Pdx2-y2   0.19951   0.00000     -0.000   0.000   0.000
    1     Total     3.63934   0.00000      0.000   0.000  -0.000

    2  9 3Pdxy      0.12139   0.00000     -0.000   0.000  -0.000
    2 10 3Pdyz      0.02757   0.00000     -0.000   0.000  -0.000
    2 11 3Pdz2      0.00938   0.00000     -0.000  -0.000  -0.000
    2 12 3Pdxz      0.02912   0.00000      0.000  -0.000  -0.000
    2 13 3Pdx2-y2   0.09425   0.00000      0.000  -0.000   0.000
    2     Total     3.79355   0.00000     -0.000  -0.000   0.000

[...]

Total              14.36340   0.00000     -0.000  -0.000  -0.000

[...]

Atom      Orb        Charge      Spin       Svec
    5  9 3Pdxy      0.00662   0.00000      0.000  -0.000  -0.000
    5 10 3Pdyz      0.00709   0.00000     -0.000   0.000  -0.000
    5 11 3Pdz2     -0.00003   0.00000      0.000  -0.000   0.000
    5 12 3Pdxz      0.00393   0.00000     -0.000  -0.000   0.000
    5 13 3Pdx2-y2   0.00551   0.00000     -0.000  -0.000   0.000
    5     Total     5.38473   0.00000      0.000   0.000   0.000

[...]

    7  9 3Pdxy      0.00108   0.00000      0.000  -0.000  -0.000
    7 10 3Pdyz      0.00456   0.00000     -0.000  -0.000  -0.000
    7 11 3Pdz2      0.00048   0.00000      0.000   0.000   0.000
    7 12 3Pdxz      0.00222   0.00000     -0.000  -0.000  -0.000
    7 13 3Pdx2-y2   0.00541   0.00000      0.000  -0.000  -0.000
    7     Total     5.53826   0.00000      0.000   0.000   0.000

[...]

Atom      Orb        Charge      Spin       Svec
    8  3 2Ppy       0.02394   0.00000     -0.000  -0.000   0.000
    8  4 2Ppz       0.03130   0.00000      0.000  -0.000   0.000
    8  5 2Ppx       0.02501   0.00000      0.000   0.000  -0.000
    8     Total     1.21360   0.00000      0.000  -0.000   0.000

    9  3 2Ppy       0.03058   0.00000      0.000   0.000   0.000
    9  4 2Ppz       0.01770   0.00000      0.000   0.000  -0.000
    9  5 2Ppx       0.01767   0.00000      0.000   0.000  -0.000
    9     Total     1.19660   0.00000      0.000  -0.000   0.000

[...]

   13  3 2Ppy       0.02625   0.00000     -0.000   0.000  -0.000
   13  4 2Ppz       0.03423   0.00000     -0.000  -0.000  -0.000
   13  5 2Ppx       0.02293   0.00000     -0.000  -0.000  -0.000
   13     Total     0.75537   0.00000     -0.000  -0.000  -0.000

[...]

Species: O

Atom      Orb        Charge      Spin       Svec
   12  7 2pz       -0.00019   0.00000      0.000  -0.000  -0.000
   12  9 3Pdxy      0.00710   0.00000      0.000   0.000  -0.000
   12 10 3Pdyz      0.00237   0.00000      0.000  -0.000   0.000
   12 11 3Pdz2      0.00130   0.00000      0.000  -0.000   0.000
   12 12 3Pdxz      0.00793   0.00000     -0.000  -0.000   0.000
   12 13 3Pdx2-y2   0.00791   0.00000     -0.000  -0.000   0.000
   12     Total     6.47820   0.00000     -0.000   0.000  -0.000

Total              42.00000   0.00000      0.000   0.000   0.000

siesta: Eigenvalues (eV):
ik =     1
  -21.9474  -21.9474  -21.5531  -21.5531  -21.0312  -21.0312  -19.4668  -19.4668  -14.6910  -14.6910
  -13.2990  -13.2990  -12.8129  -12.8129  -12.3889  -12.3889  -11.9347  -11.9347  -10.7588  -10.7588
  -10.0519  -10.0519   -9.5368   -9.5368   -8.6045   -8.6045   -8.3743   -8.3743   -7.7140   -7.7140
   -7.6214   -7.6214   -6.7478   -6.7478   -6.5148   -6.5148   -6.1365   -6.1365   -5.8309   -5.8309
   -5.4134   -5.4134   -3.1881   -3.1881   -2.2297   -2.2297   -1.8461   -1.8461   -1.7446   -1.7446
   -1.5522   -1.5522   -0.9156   -0.9155   -0.1478   -0.1478    0.2952    0.2952    0.7962    0.7962
    1.1708    1.1708    1.4191    1.4191    1.4881    1.4881    1.9164    1.9164    2.1689    2.1689
    2.9702    2.9702    3.1572    3.1572    3.3579    3.3579    4.1759    4.1759    4.4933    4.4933
    4.5374    4.5374    4.7707    4.7707    4.8744    4.8744    5.6176    5.6176    5.8319    5.8319
    6.0065    6.0065    6.2474    6.2474    6.6205    6.6205    6.8824    6.8824    7.1661    7.1661
    7.8027    7.8027    8.0606    8.0606    8.1391    8.1391    8.3041    8.3041    8.9496    8.9496
    9.2683    9.2683    9.7615    9.7615    9.7785    9.7785   10.2105   10.2105   10.9350   10.9350
   11.0085   11.0085   11.8587   11.8587   11.9501   11.9501   12.7956   12.7956   12.8213   12.8213
   13.5947   13.5947   13.9606   13.9606   14.0823   14.0823   15.0744   15.0744   15.5582   15.5582
   16.8039   16.8039   17.3916   17.3916   18.0831   18.0831   19.5220   19.5220   20.2514   20.2514
   21.0005   21.0005   21.2312   21.2312   22.4020   22.4020   23.0161   23.0161   23.7369   23.7369
   24.7868   24.7868   26.2960   26.2960   28.8635   28.8635   28.9403   28.9403   30.3821   30.3821
   30.9458   30.9458   31.2375   31.2375   31.5278   31.5278   31.7131   31.7131   32.7606   32.7606
   34.6179   34.6179   35.1751   35.1751   35.3333   35.3333   36.0538   36.0538   37.2132   37.2132
   37.9938   37.9938   39.2088   39.2088   40.1319   40.1319   40.8569   40.8569   41.2941   41.2941
   42.5118   42.5118   43.2920   43.2920   43.6668   43.6668   44.1335   44.1335   44.8535   44.8535
   46.4161   46.4161   49.1292   49.1292   51.0169   51.0169   51.1630   51.1630   51.8353   51.8353
   52.8718   52.8718   54.7358   54.7358   55.1908   55.1908   55.7913   55.7913   55.9811   55.9811
   56.7052   56.7052   59.1529   59.1529   60.2927   60.2927   61.7873   61.7873   62.0093   62.0093
   66.3819   66.3819   68.9723   68.9723   80.7746   80.7746   91.7402   91.7402   99.3283   99.3283
  100.3222  100.3222  111.2378  111.2378  126.2301  126.2301  139.7704  139.7704
siesta: Fermi energy =      -4.365653 eV

siesta: Program's energy decomposition (eV):
siesta: Ebs     =      -484.860167
siesta: Eions   =      1544.210757
siesta: Ena     =       161.806605
siesta: Ekin    =      1228.855407
siesta: Enl     =     -1144.037451
siesta: Eso     =        -0.001881
siesta: Edftu   =         0.000000
siesta: DEna    =        16.844812
siesta: DUscf   =         6.363922
siesta: DUext   =         0.000000
siesta: Exc     =      -475.962517
siesta: eta*DQ  =         0.000000
siesta: Emadel  =         0.000000
siesta: Emeta   =         0.000000
siesta: Emolmec =         0.000000
siesta: Ekinion =         0.000000
siesta: Eharris =     -1750.341861
siesta: Etot    =     -1750.341861
siesta: FreeEng =     -1750.341861

siesta: Final energy (eV):
siesta:  Band Struct. =    -484.860167
siesta:       Kinetic =    1228.855407
siesta:       Hartree =    2675.327090
siesta:       Edftu   =       0.000000
siesta:       Eso     =      -0.001881
siesta:    Ext. field =       0.000000
siesta:   Exch.-corr. =    -475.962517
siesta:  Ion-electron =   -6446.678996
siesta:       Ion-ion =    1268.119036
siesta:       Ekinion =       0.000000
siesta:         Total =   -1750.341861
siesta:         Fermi =      -4.365653

siesta: Atomic forces (eV/Ang):
siesta:      1    0.002781    0.005460   -0.000000
siesta:      2    0.000247    0.002723    0.000000
siesta:      3   -0.005438    0.002602    0.000000
siesta:      4   -0.003563    0.002599    0.000000
siesta:      5    0.004374   -0.004333    0.000000
siesta:      6    0.028273    0.009987    0.000000
siesta:      7   -0.007224   -0.008846   -0.000000
siesta:      8   -0.148917   -0.176250   -0.000000
siesta:      9   -0.025084    0.223835   -0.000000
siesta:     10   -0.159112   -0.055420   -0.000000
siesta:     11   -0.035659    0.014636    0.000000
siesta:     12    0.583986    0.441626   -0.000000
siesta:     13    0.002373   -0.090568    0.000000
siesta: ----------------------------------------
siesta:    Tot    0.237036    0.368052    0.000000

siesta: Stress tensor (static) (eV/Ang**3):
siesta:    -0.000815   -0.000406    0.000000
siesta:    -0.000406    0.000280    0.000000
siesta:     0.000000    0.000000   -0.000089

siesta: Cell volume =       2146.402715 Ang**3

siesta: Pressure (static):
siesta:                Solid            Molecule  Units
siesta:           0.00000226         -0.00000332  Ry/Bohr**3
siesta:           0.00020793         -0.00030457  eV/Ang**3
siesta:           0.33313857         -0.48797950  kBar
(Free)E+ p_basis*V_orbitals  =       -1741.481119
(Free)Eharris+ p_basis*V_orbitals  =       -1741.481119
     spin moment: S , {S} =    0.00000   0.00000   0.00000   0.00000

siesta: Electric dipole (a.u.)  =   -2.529300   -1.705279    0.000000
siesta: Electric dipole (Debye) =   -6.428845   -4.334389    0.000000

cite: Please see "Cytosine.bib" for an exhaustive BiBTeX file.
cite: Please clearly indicate Siesta version in published work: v4.1.5-1-g384057250
cite: This calculation has made use of the following articles
cite: which are encouraged to be cited in a published work.
        Primary SIESTA paper
          DOI: www.doi.org/10.1088/0953-8984/14/11/302
        Spin-orbit coupling (on-site approximation)
          DOI: www.doi.org/10.1088/0953-8984/19/19/489001

WARNING: alloc-realloc-dealloc name mismatch
         Name: atomlist isa
         Node:     0
         Subsequent mismatches will not be reported
>> End of run:  12-MAY-2023  23:23:45
Job completed