>> Start of run:   1-JUN-2023  12:20:36

reinit: Reading from standard input
reinit: Dumped input in INPUT_TMP.02821
************************** Dump of input data file ****************************
# mpirun -np 4 siesta-4.1.5 < Cytosine.fdf > Cytosine.out
SystemLabel      Cytosine
NumberOfAtoms    13
NumberOfSpecies  4
%block ChemicalSpeciesLabel
    1   14  Si
    2    7  N
    3    1  H
    4    8  O
%endblock ChemicalSpeciesLabel
# This overrides Defaults.fdf conf
MD.TypeOfRun                CG # CG, Verlet
MD.Steps                    0
AtomicCoordinatesFormat NotScaledCartesianAng
%block AtomicCoordinatesAndAtomicSpecies
   -1.51311446    0.54171652   -0.00000000   1       1  Si
   -1.66951810   -1.70667169    0.00000000   1       2  Si
    1.56631404    0.69146633   -0.00000000   1       3  Si
    0.42933873   -2.35241710   -0.00000000   1       4  Si
   -0.02413785    1.33263830   -0.00000000   2       5  N
   -2.87376223    1.63830712    0.00000000   2       6  N
    1.70315409   -1.12772840   -0.00000000   2       7  N
   -2.80258630   -2.68458504   -0.00000000   3       8  H
    0.98751256   -3.75690762   -0.00000000   3       9  H
   -3.87800911    1.34078184   -0.00000000   3      10  H
   -2.71828565    2.68271005   -0.00000000   3      11  H
    2.96638692    1.43135303   -0.00000003   4      12  O
    2.71855408   -1.43251806    0.00000000   3      13  H
%endblock AtomicCoordinatesAndAtomicSpecies
# Lattice
LatticeConstant 1.0 Ang
%block LatticeVectors
    14.828907    0.000000    0.000000
    0.000000   14.495518    0.000000
    0.000000    0.000000    9.854683
%endblock LatticeVectors
%include ../../Defaults.fdf
************************** End of input data file *****************************

reinit: -----------------------------------------------------------------------
reinit: System Name:
reinit: -----------------------------------------------------------------------
reinit: System Label: Cytosine
reinit: -----------------------------------------------------------------------

initatom: Reading input for the pseudopotentials and atomic orbitals ----------
Species number:   1 Atomic number:   14 Label: Si
Species number:   2 Atomic number:    7 Label: N
Species number:   3 Atomic number:    1 Label: H
Species number:   4 Atomic number:    8 Label: O

Ground state valence configuration:   3s02  3p02
Reading pseudopotential information in formatted form from Si.psf

Pseudopotential generated from a relativistic atomic calculation

Valence configuration for pseudopotential generation:
3s( 2.00) rc: 1.67
3p( 2.00) rc: 2.04
3d( 0.00) rc: 2.89
4f( 0.00) rc: 2.49
Ground state valence configuration:   2s02  2p03
Reading pseudopotential information in formatted form from N.psf

[...]

Valence configuration for pseudopotential generation:
2s( 2.00) rc: 0.94
2p( 3.00) rc: 0.59
3d( 0.00) rc: 3.46
4f( 0.00) rc: 2.47
Ground state valence configuration:   1s01
Reading pseudopotential information in formatted form from H.psf

[...]

Valence configuration for pseudopotential generation:
1s( 1.00) rc: 0.01
2p( 0.00) rc: 0.60
3d( 0.00) rc: 1.99
4f( 0.00) rc: 2.49
Ground state valence configuration:   2s02  2p04
Reading pseudopotential information in formatted form from O.psf

Pseudopotential generated from a relativistic atomic calculation

Valence configuration for pseudopotential generation:
2s( 2.00) rc: 0.45
2p( 4.00) rc: 0.92
3d( 0.00) rc: 2.24
4f( 0.00) rc: 0.25
For Si, standard SIESTA heuristics set lmxkb to 3
 (one more than the basis l, including polarization orbitals).
Use PS.lmax or PS.KBprojectors blocks to override.
For N, standard SIESTA heuristics set lmxkb to 3
 (one more than the basis l, including polarization orbitals).
Use PS.lmax or PS.KBprojectors blocks to override.
For H, standard SIESTA heuristics set lmxkb to 2
 (one more than the basis l, including polarization orbitals).
Use PS.lmax or PS.KBprojectors blocks to override.
For O, standard SIESTA heuristics set lmxkb to 3
 (one more than the basis l, including polarization orbitals).
Use PS.lmax or PS.KBprojectors blocks to override.

<basis_specs>
Si                   Z=  14    Mass=  28.090        Charge= 0.17977+309
Lmxo=1 Lmxkb= 3    BasisType=split      Semic=F
L=0  Nsemic=0  Cnfigmx=3
          i=1  nzeta=2  polorb=0  (3s)
            splnorm:   0.28000
               vcte:    0.0000
               rinn:    0.0000
               qcoe:    0.0000
               qyuk:    0.0000
               qwid:   0.10000E-01
                rcs:    0.0000      0.0000
            lambdas:    1.0000      1.0000
L=1  Nsemic=0  Cnfigmx=3
          i=1  nzeta=2  polorb=1  (3p)
            splnorm:   0.28000
               vcte:    0.0000
               rinn:    0.0000
               qcoe:    0.0000
               qyuk:    0.0000
               qwid:   0.10000E-01
                rcs:    0.0000      0.0000
            lambdas:    1.0000      1.0000
L=0  Nkbl=1  erefs: 0.17977+309
L=1  Nkbl=1  erefs: 0.17977+309
L=2  Nkbl=1  erefs: 0.17977+309
L=3  Nkbl=1  erefs: 0.17977+309
</basis_specs>

atom: Called for Si                    (Z =  14)

read_vps: Pseudopotential generation method:
read_vps: ATM4.2.7  Troullier-Martins
Valence charge for ps generation:    4.00000

xc_check: Exchange-correlation functional:
xc_check: GGA Perdew, Burke & Ernzerhof 1996
V l=0 = -2*Zval/r beyond r=  2.7826
V l=1 = -2*Zval/r beyond r=  2.7826
V l=2 = -2*Zval/r beyond r=  2.9253
V l=3 = -2*Zval/r beyond r=  2.7826
All V_l potentials equal beyond r=  2.8530
This should be close to max(r_c) in ps generation
All pots = -2*Zval/r beyond r=  2.9253

VLOCAL1: 99.0% of the norm of Vloc inside      5.333 Ry
VLOCAL1: 99.9% of the norm of Vloc inside     12.154 Ry
atom: Maximum radius for 4*pi*r*r*local-pseudopot. charge    3.39869
atom: Maximum radius for r*vlocal+2*Zval:    2.96205
GHOST: No ghost state for L =  0
GHOST: No ghost state for L =  1
GHOST: No ghost state for L =  2
GHOST: No ghost state for L =  3

KBgen: Kleinman-Bylander projectors:
   l= 0   rc=  3.075247   el= -0.794092   Ekb=  5.879390   kbcos=  0.167461
   l= 1   rc=  3.153101   el= -0.300068   Ekb=  2.642817   kbcos=  0.058301
   l= 2   rc=  3.273594   el=  0.001958   Ekb= -1.185135   kbcos= -0.104411
   l= 3   rc=  3.232927   el=  0.003046   Ekb= -0.497174   kbcos= -0.015889

KBgen: Total number of Kleinman-Bylander projectors:   16
atom: -------------------------------------------------------------------------

atom: SANKEY-TYPE ORBITALS:
atom: Selected multiple-zeta basis: split

SPLIT: Orbitals with angular momentum L= 0

SPLIT: Basis orbitals for state 3s

SPLIT: PAO cut-off radius determined from an
SPLIT: energy shift=  0.002000 Ry

   izeta = 1
                 lambda =    1.000000
                     rc =    6.429618
                 energy =   -0.792283
                kinetic =    0.525293
    potential(screened) =   -1.317576
       potential(ionic) =   -3.744923

   izeta = 2
                 rmatch =    3.998416
              splitnorm =    0.280000
                 energy =   -0.583081
                kinetic =    1.069570
    potential(screened) =   -1.652651
       potential(ionic) =   -4.235185

[...]

SPLIT: Basis orbitals for state 3p

[...]

POLgen: Perturbative polarization orbital with L=  2

POLgen: Polarization orbital for state 3p

   izeta = 1
                     rc =    8.464845
                 energy =    0.321949
                kinetic =    1.055677
    potential(screened) =   -0.733728
       potential(ionic) =   -2.672950
atom: Total number of Sankey-type orbitals: 13

atm_pop: Valence configuration (for local Pseudopot. screening):
 3s( 2.00)
 3p( 2.00)
Vna: chval, zval:    4.00000   4.00000

Vna:  Cut-off radius for the neutral-atom potential:   8.464845

atom: _________________________________________________________________________

[...]

KBgen: Kleinman-Bylander projectors:
   l= 0   rc=  3.417763   el= -1.365098   Ekb= -4.433130   kbcos= -0.707855
   l= 1   rc=  3.375302   el= -0.521201   Ekb=-13.264039   kbcos= -0.535594
   l= 2   rc=  3.872880   el=  0.001991   Ekb= -0.641094   kbcos= -0.062456
   l= 3   rc=  3.970931   el=  0.003093   Ekb= -0.474517   kbcos= -0.018236

[...]

<basis_specs>
H                    Z=   1    Mass=  1.0100        Charge= 0.17977+309
Lmxo=0 Lmxkb= 2    BasisType=split      Semic=F
L=0  Nsemic=0  Cnfigmx=1
          i=1  nzeta=2  polorb=1  (1s)
            splnorm:   0.62000
               vcte:    0.0000
               rinn:    0.0000
               qcoe:    0.0000
               qyuk:    0.0000
               qwid:   0.10000E-01
                rcs:    0.0000      0.0000
            lambdas:    1.0000      1.0000
L=0  Nkbl=1  erefs: 0.17977+309
L=1  Nkbl=1  erefs: 0.17977+309
L=2  Nkbl=1  erefs: 0.17977+309
</basis_specs>

[...]

KBgen: Kleinman-Bylander projectors:
   l= 0   rc=  2.036604   el= -0.477180   Ekb= -6.081590   kbcos= -0.277285
   l= 1   rc=  2.195416   el=  0.001076   Ekb= -0.926943   kbcos= -0.034643
   l= 2   rc=  2.251056   el=  0.002010   Ekb= -0.130941   kbcos= -0.009788

[...]

POLgen: Polarization orbital for state 1s

[...]

atm_pop: Valence configuration (for local Pseudopot. screening):
 1s( 1.00)
Vna: chval, zval:    1.00000   1.00000

[...]

<basis_specs>
O                    Z=   8    Mass=  16.000        Charge= 0.17977+309
Lmxo=1 Lmxkb= 3    BasisType=split      Semic=F
L=0  Nsemic=0  Cnfigmx=2
          i=1  nzeta=2  polorb=0  (2s)
            splnorm:   0.28000
               vcte:    0.0000
               rinn:    0.0000
               qcoe:    0.0000
               qyuk:    0.0000
               qwid:   0.10000E-01
                rcs:    0.0000      0.0000
            lambdas:    1.0000      1.0000
L=1  Nsemic=0  Cnfigmx=2
          i=1  nzeta=2  polorb=1  (2p)
            splnorm:   0.28000
               vcte:    0.0000
               rinn:    0.0000
               qcoe:    0.0000
               qyuk:    0.0000
               qwid:   0.10000E-01
                rcs:    0.0000      0.0000
            lambdas:    1.0000      1.0000
L=0  Nkbl=1  erefs: 0.17977+309
L=1  Nkbl=1  erefs: 0.17977+309
L=2  Nkbl=1  erefs: 0.17977+309
L=3  Nkbl=1  erefs: 0.17977+309
</basis_specs>

atom: Called for O                     (Z =   8)

read_vps: Pseudopotential generation method:
read_vps: ATM4.2.7  Troullier-Martins
Valence charge for ps generation:    6.00000

xc_check: Exchange-correlation functional:
xc_check: GGA Perdew, Burke & Ernzerhof 1996
V l=0 = -2*Zval/r beyond r=  1.1000
V l=1 = -2*Zval/r beyond r=  1.1000
V l=2 = -2*Zval/r beyond r=  2.2154
V l=3 = -2*Zval/r beyond r=  1.1000
All V_l potentials equal beyond r=  2.2154
This should be close to max(r_c) in ps generation
All pots = -2*Zval/r beyond r=  2.2154

VLOCAL1: 99.0% of the norm of Vloc inside      8.845 Ry
VLOCAL1: 99.9% of the norm of Vloc inside     20.157 Ry
atom: Maximum radius for 4*pi*r*r*local-pseudopot. charge    2.67231
atom: Maximum radius for r*vlocal+2*Zval:    2.32897
GHOST: No ghost state for L =  0
GHOST: No ghost state for L =  1
GHOST: No ghost state for L =  2
GHOST: No ghost state for L =  3

KBgen: Kleinman-Bylander projectors:
   l= 0   rc=  2.243238   el= -1.759686   Ekb=**********   kbcos= -0.171774
[...]

outcell: Cell vector modules (Ang)   :   14.828907   14.495518    9.854683
outcell: Cell angles (23,13,12) (deg):     90.0000     90.0000     90.0000
outcell: Cell volume (Ang**3)        :   2118.2906
<dSpData1D:S at geom step 0
  <sparsity:sparsity for geom step 0
    nrows_g=129 nrows=48 sparsity=.3675 nnzs=6115, refcount: 8>
  <dData1D:(new from dSpData1D) n=6115, refcount: 1>
refcount: 1>
new_DM -- step:     1
Initializing Density Matrix...
DM filled with atomic data:
<dSpData2D:DM initialized from atoms
  <sparsity:sparsity for geom step 0
    nrows_g=129 nrows=48 sparsity=.3675 nnzs=6115, refcount: 9>
  <dData2D:DM n=6115 m=8, refcount: 1>
refcount: 1>
     spin moment: S , {S} =   24.00000   0.00000   0.00000  24.00000
No. of atoms with KB's overlaping orbs in proc 0. Max # of overlaps:      13     125

Initializing spin-orbit part of the Hamiltonian
  Adding spin-orbit effects for Si
  Adding spin-orbit effects for N
  Adding spin-orbit effects for H
  Adding spin-orbit effects for O

New grid distribution:   1
           1       1:   90    1:   41    1:   30
           2       1:   90    1:   41   31:   60
           3       1:   90   42:   81    1:   30
           4       1:   90   42:   81   31:   60

InitMesh: MESH =   180 x   162 x   120 =     3499200
InitMesh: (bp) =    90 x    81 x    60 =      437400
InitMesh: Mesh cutoff (required, used) =   340.000   345.195 Ry
ExtMesh (bp) on 0 =   202 x   145 x   142 =     4159180
New grid distribution:   2
           1       1:   63    1:   63    1:   60
           2      64:   90    1:   48    1:   60
           3       1:   63   64:   81    1:   60
           4      64:   90   49:   81    1:   60
New grid distribution:   3
           1       1:   56    1:   49    1:   60
           2      57:   90    1:   50    1:   60
           3       1:   56   50:   81    1:   60
           4      57:   90   51:   81    1:   60
Setting up quadratic distribution...
ExtMesh (bp) on 0 =   175 x   167 x   172 =     5026700
PhiOnMesh: Number of (b)points on node 0 =               238140
PhiOnMesh: nlist on node 0 =              1371726

stepf: Fermi-Dirac step function

siesta: Program's energy decomposition (eV):
siesta: Ebs     =      -275.002864
siesta: Eions   =      1544.210757
siesta: Ena     =       161.806605
siesta: Ekin    =      1422.277630
siesta: Enl     =     -1351.404537
siesta: Eso     =        -0.001693
siesta: Edftu   =         0.000000
siesta: DEna    =        56.054060
siesta: DUscf   =        33.968910
siesta: DUext   =         0.000000
siesta: Exc     =      -510.876486
siesta: eta*DQ  =         0.000000
siesta: Emadel  =         0.000000
siesta: Emeta   =         0.000000
siesta: Emolmec =         0.000000
siesta: Ekinion =         0.000000
siesta: Eharris =     -1704.128670
siesta: Etot    =     -1732.386268
siesta: FreeEng =     -1732.387654

        iscf     Eharris(eV)        E_KS(eV)     FreeEng(eV)     dDmax    Ef(eV) dHmax(eV)
   scf:    1    -1704.128670    -1732.386268    -1732.387654  0.965199 -4.890835 21.065709
     spin moment: S , {S} =    0.00836  -0.00000   0.00000   0.00836
   scf:    2    -1757.433189    -1748.064457    -1748.064460  0.163414 -4.674508  8.808237
     spin moment: S , {S} =    0.00007   0.00000  -0.00000   0.00007
   scf:    3    -1750.497909    -1749.756691    -1749.756691  0.067873 -4.289874  6.607264
     spin moment: S , {S} =    0.00004  -0.00000   0.00000   0.00004
   scf:    4    -1750.319861    -1750.136048    -1750.136048  0.037545 -4.165512  2.522333
     spin moment: S , {S} =    0.00001   0.00000  -0.00000   0.00001
   scf:    5    -1750.386631    -1750.292640    -1750.292640  0.023183 -4.460941  1.680661
     spin moment: S , {S} =    0.00001  -0.00000  -0.00000   0.00001
   scf:    6    -1750.452159    -1750.369358    -1750.369358  0.025974 -4.351802  0.451212
     spin moment: S , {S} =    0.00000  -0.00000   0.00000   0.00000
   scf:    7    -1750.407061    -1750.387538    -1750.387538  0.011173 -4.373558  0.216339
     spin moment: S , {S} =    0.00000  -0.00000  -0.00000   0.00000
   scf:    8    -1750.398930    -1750.393047    -1750.393047  0.004969 -4.373941  0.114591
     spin moment: S , {S} =    0.00000  -0.00000   0.00000   0.00000
   scf:    9    -1750.401228    -1750.396830    -1750.396830  0.005421 -4.380191  0.058234
     spin moment: S , {S} =    0.00000  -0.00000   0.00000   0.00000
   scf:   10    -1750.400406    -1750.398365    -1750.398365  0.004859 -4.375746  0.020573
     spin moment: S , {S} =    0.00000   0.00000   0.00000   0.00000
   scf:   11    -1750.398716    -1750.398522    -1750.398522  0.001558 -4.370691  0.009401
     spin moment: S , {S} =    0.00000   0.00000   0.00000  -0.00000
   scf:   12    -1750.398598    -1750.398556    -1750.398556  0.000774 -4.369307  0.005965
     spin moment: S , {S} =    0.00000   0.00000   0.00000  -0.00000
   scf:   13    -1750.398581    -1750.398568    -1750.398568  0.000403 -4.367813  0.003315
     spin moment: S , {S} =    0.00000   0.00000   0.00000   0.00000
   scf:   14    -1750.398577    -1750.398572    -1750.398572  0.000269 -4.367000  0.001747
     spin moment: S , {S} =    0.00000   0.00000   0.00000   0.00000
   scf:   15    -1750.398574    -1750.398573    -1750.398573  0.000089 -4.366702  0.001234
     spin moment: S , {S} =    0.00000   0.00000   0.00000   0.00000
   scf:   16    -1750.398574    -1750.398574    -1750.398574  0.000107 -4.366481  0.000539
     spin moment: S , {S} =    0.00000   0.00000   0.00000   0.00000
   scf:   17    -1750.398574    -1750.398574    -1750.398574  0.000038 -4.366502  0.000203
     spin moment: S , {S} =    0.00000   0.00000   0.00000   0.00000
   scf:   18    -1750.398574    -1750.398574    -1750.398574  0.000016 -4.366506  0.000120
     spin moment: S , {S} =    0.00000   0.00000   0.00000   0.00000
   scf:   19    -1750.398574    -1750.398574    -1750.398574  0.000010 -4.366489  0.000076
     spin moment: S , {S} =    0.00000   0.00000   0.00000  -0.00000
   scf:   20    -1750.398574    -1750.398574    -1750.398574  0.000007 -4.366481  0.000052
     spin moment: S , {S} =    0.00000   0.00000   0.00000  -0.00000
   scf:   21    -1750.398574    -1750.398574    -1750.398574  0.000006 -4.366476  0.000028
     spin moment: S , {S} =    0.00000   0.00000   0.00000  -0.00000
   scf:   22    -1750.398574    -1750.398574    -1750.398574  0.000005 -4.366477  0.000015
     spin moment: S , {S} =    0.00000   0.00000   0.00000  -0.00000
   scf:   23    -1750.398574    -1750.398574    -1750.398574  0.000002 -4.366475  0.000009
     spin moment: S , {S} =    0.00000   0.00000   0.00000   0.00000
   scf:   24    -1750.398574    -1750.398574    -1750.398574  0.000001 -4.366474  0.000004
     spin moment: S , {S} =    0.00000   0.00000   0.00000   0.00000
mix: Pulay -- resetting history
   scf:   25    -1750.398574    -1750.398574    -1750.398574  0.000000 -4.366474  0.000002
     spin moment: S , {S} =    0.00000   0.00000   0.00000   0.00000
   scf:   26    -1750.398574    -1750.398574    -1750.398574  0.000000 -4.366474  0.000001
     spin moment: S , {S} =    0.00000   0.00000   0.00000   0.00000
   scf:   27    -1750.398574    -1750.398574    -1750.398574  0.000000 -4.366474  0.000001
     spin moment: S , {S} =    0.00000   0.00000   0.00000   0.00000

SCF Convergence by DM+H criterion
max |DM_out - DM_in|         :     0.0000000995
max |H_out - H_in|      (eV) :     0.0000005007
SCF cycle converged after 27 iterations

Using DM_out to compute the final energy and forces
No. of atoms with KB's overlaping orbs in proc 0. Max # of overlaps:      13     125

siesta: E_KS(eV) =            -1750.3986

siesta: E_KS - E_eggbox =     -1750.3986
     spin moment: S , {S} =    0.00000   0.00000   0.00000   0.00000

siesta: Atomic forces (eV/Ang):
     1    0.002932    0.003482    0.000000
     2   -0.000183    0.002771    0.000000
     3    0.002034    0.004945   -0.000000
     4   -0.002823    0.000097    0.000000
     5    0.002062   -0.000164    0.000000
     6    0.003646    0.002528   -0.000000
     7   -0.001593    0.001115    0.000000
     8   -0.004613   -0.000442   -0.000000
     9    0.002569   -0.003352   -0.000000
    10    0.002638    0.001042   -0.000000
    11   -0.001114   -0.000496    0.000000
    12   -0.002376   -0.001141    0.000004
    13    0.001465   -0.000859    0.000000
   Tot    0.004645    0.009525    0.000004
   Max    0.004945
   Res    0.001970    sqrt( Sum f_i^2 / 3N )
   Max    0.004945    constrained

Stress tensor Voigt[x,y,z,yz,xz,xy] (kbar):       -1.31        0.05       -0.15        0.00        0.00       -0.66
(Free)E + p*V (eV/cell)    -1749.7737
Target enthalpy (eV/cell)    -1750.3986

mulliken: Atomic and Orbital Populations:

Species: Si

Atom      Orb        Charge      Spin       Svec
    1  9 3Pdxy      0.26618   0.00000      0.000  -0.000  -0.000
    1 10 3Pdyz      0.13258   0.00000     -0.000   0.000   0.000
    1 11 3Pdz2      0.00992   0.00000      0.000  -0.000   0.000
    1 12 3Pdxz      0.15548   0.00000      0.000   0.000  -0.000
    1 13 3Pdx2-y2   0.19955   0.00000     -0.000   0.000  -0.000
    1     Total     3.63938   0.00000      0.000   0.000  -0.000

    2  9 3Pdxy      0.12137   0.00000     -0.000   0.000  -0.000
    2 10 3Pdyz      0.02757   0.00000      0.000   0.000  -0.000
    2 11 3Pdz2      0.00938   0.00000     -0.000  -0.000  -0.000
    2 12 3Pdxz      0.02912   0.00000      0.000  -0.000  -0.000
    2 13 3Pdx2-y2   0.09426   0.00000      0.000  -0.000   0.000
    2     Total     3.79351   0.00000     -0.000  -0.000   0.000

[...]

Total              14.36341   0.00000     -0.000  -0.000  -0.000

[...]

    7  9 3Pdxy      0.00107   0.00000      0.000  -0.000  -0.000
    7 10 3Pdyz      0.00456   0.00000     -0.000  -0.000  -0.000
    7 11 3Pdz2      0.00047   0.00000      0.000   0.000   0.000
    7 12 3Pdxz      0.00222   0.00000     -0.000  -0.000  -0.000
    7 13 3Pdx2-y2   0.00539   0.00000      0.000  -0.000  -0.000
    7     Total     5.53743   0.00000      0.000   0.000   0.000

[...]

Atom      Orb        Charge      Spin       Svec
    8  3 2Ppy       0.02394   0.00000     -0.000   0.000   0.000
    8  4 2Ppz       0.03129   0.00000      0.000  -0.000   0.000
    8  5 2Ppx       0.02501   0.00000      0.000   0.000  -0.000
    8     Total     1.21363   0.00000      0.000  -0.000   0.000

    9  3 2Ppy       0.03057   0.00000      0.000   0.000   0.000
    9  4 2Ppz       0.01769   0.00000      0.000   0.000  -0.000
    9  5 2Ppx       0.01767   0.00000      0.000  -0.000  -0.000
    9     Total     1.19642   0.00000      0.000  -0.000   0.000

[...]

   13  3 2Ppy       0.02622   0.00000     -0.000   0.000  -0.000
   13  4 2Ppz       0.03419   0.00000     -0.000  -0.000  -0.000
   13  5 2Ppx       0.02296   0.00000     -0.000  -0.000  -0.000
   13     Total     0.75611   0.00000     -0.000  -0.000  -0.000

[...]

Species: O

Atom      Orb        Charge      Spin       Svec
   12  9 3Pdxy      0.00710   0.00000      0.000   0.000  -0.000
   12 10 3Pdyz      0.00237   0.00000      0.000  -0.000   0.000
   12 11 3Pdz2      0.00130   0.00000      0.000  -0.000  -0.000
   12 12 3Pdxz      0.00793   0.00000     -0.000  -0.000   0.000
   12 13 3Pdx2-y2   0.00790   0.00000     -0.000  -0.000   0.000
   12     Total     6.47827   0.00000     -0.000   0.000  -0.000

Total              42.00000   0.00000      0.000   0.000   0.000

siesta: Eigenvalues (eV):
ik =     1
  -21.9466  -21.9466  -21.5556  -21.5556  -21.0319  -21.0319  -19.4690  -19.4690  -14.6921  -14.6921
  -13.3008  -13.3008  -12.8145  -12.8145  -12.3900  -12.3900  -11.9364  -11.9364  -10.7600  -10.7600
  -10.0530  -10.0530   -9.5382   -9.5382   -8.6054   -8.6054   -8.3761   -8.3761   -7.7162   -7.7162
   -7.6208   -7.6208   -6.7500   -6.7500   -6.5162   -6.5162   -6.1389   -6.1389   -5.8312   -5.8312
   -5.4150   -5.4150   -3.1891   -3.1891   -2.2306   -2.2306   -1.8476   -1.8476   -1.7464   -1.7464
   -1.5530   -1.5530   -0.9175   -0.9175   -0.1500   -0.1500    0.2939    0.2939    0.7947    0.7947
    1.1701    1.1701    1.4184    1.4184    1.4876    1.4876    1.9152    1.9152    2.1676    2.1676
    2.9688    2.9688    3.1556    3.1556    3.3568    3.3568    4.1756    4.1756    4.4915    4.4915
    4.5363    4.5363    4.7694    4.7694    4.8731    4.8731    5.6166    5.6166    5.8298    5.8298
    6.0048    6.0048    6.2459    6.2459    6.6189    6.6189    6.8810    6.8810    7.1643    7.1643
    7.8008    7.8008    8.0592    8.0592    8.1379    8.1379    8.3025    8.3025    8.9480    8.9480
    9.2660    9.2660    9.7600    9.7600    9.7774    9.7774   10.2096   10.2096   10.9335   10.9335
   11.0072   11.0072   11.8580   11.8580   11.9491   11.9491   12.7936   12.7936   12.8206   12.8206
   13.5934   13.5934   13.9594   13.9594   14.0814   14.0814   15.0725   15.0725   15.5572   15.5572
   16.8047   16.8047   17.3911   17.3911   18.0818   18.0818   19.5219   19.5219   20.2515   20.2515
   20.9992   20.9992   21.2301   21.2301   22.3999   22.3999   23.0141   23.0141   23.7348   23.7348
   24.7831   24.7831   26.2941   26.2941   28.8580   28.8580   28.9375   28.9375   30.3713   30.3713
   30.9382   30.9382   31.2338   31.2338   31.5220   31.5220   31.7089   31.7089   32.7562   32.7562
   34.6152   34.6152   35.1702   35.1702   35.3279   35.3279   36.0494   36.0494   37.2104   37.2104
   37.9908   37.9908   39.2074   39.2074   40.1287   40.1287   40.8578   40.8578   41.2904   41.2904
   42.5095   42.5095   43.2912   43.2912   43.6643   43.6643   44.1322   44.1322   44.8515   44.8515
   46.4119   46.4119   49.1260   49.1260   51.0156   51.0156   51.1574   51.1574   51.8354   51.8354
   52.8675   52.8675   54.7315   54.7315   55.1890   55.1890   55.7901   55.7901   55.9754   55.9754
   56.7037   56.7037   59.1489   59.1489   60.2861   60.2861   61.7813   61.7813   62.0077   62.0077
   66.3740   66.3740   68.9580   68.9580   80.7704   80.7704   91.7388   91.7388   99.2808   99.2808
  100.3181  100.3181  111.2294  111.2294  126.2145  126.2145  139.7564  139.7564
siesta: Fermi energy =      -4.366474 eV

siesta: Program's energy decomposition (eV):
siesta: Ebs     =      -484.915511
siesta: Eions   =      1544.210757
siesta: Ena     =       161.806605
siesta: Ekin    =      1229.013763
siesta: Enl     =     -1144.175297
siesta: Eso     =        -0.001881
siesta: Edftu   =         0.000000
siesta: DEna    =        16.839036
siesta: DUscf   =         6.368428
siesta: DUext   =         0.000000
siesta: Exc     =      -476.038470
siesta: eta*DQ  =         0.000000
siesta: Emadel  =         0.000000
siesta: Emeta   =         0.000000
siesta: Emolmec =         0.000000
siesta: Ekinion =         0.000000
siesta: Eharris =     -1750.398574
siesta: Etot    =     -1750.398574
siesta: FreeEng =     -1750.398574

siesta: Final energy (eV):
siesta:  Band Struct. =    -484.915511
siesta:       Kinetic =    1229.013763
siesta:       Hartree =    2661.732409
siesta:       Edftu   =       0.000000
siesta:       Eso     =      -0.001881
siesta:    Ext. field =       0.000000
siesta:   Exch.-corr. =    -476.038470
siesta:  Ion-electron =   -6419.596450
siesta:       Ion-ion =    1254.492056
siesta:       Ekinion =       0.000000
siesta:         Total =   -1750.398574
siesta:         Fermi =      -4.366474

siesta: Stress tensor (static) (eV/Ang**3):
siesta:    -0.000818   -0.000409    0.000000
siesta:    -0.000409    0.000028    0.000000
siesta:     0.000000    0.000000   -0.000095

siesta: Cell volume =       2118.290604 Ang**3

siesta: Pressure (static):
siesta:                Solid            Molecule  Units
siesta:           0.00000321          0.00000319  Ry/Bohr**3
siesta:           0.00029497          0.00029331  eV/Ang**3
siesta:           0.47259952          0.46993276  kBar
(Free)E+ p_basis*V_orbitals  =       -1741.537832
(Free)Eharris+ p_basis*V_orbitals  =       -1741.537832
     spin moment: S , {S} =    0.00000   0.00000   0.00000   0.00000

siesta: Electric dipole (a.u.)  =   -2.529467   -1.709086    0.000000
siesta: Electric dipole (Debye) =   -6.429268   -4.344066    0.000000

cite: Please see "Cytosine.bib" for an exhaustive BiBTeX file.
cite: Please clearly indicate Siesta version in published work: v4.1.5-1-g384057250
cite: This calculation has made use of the following articles
cite: which are encouraged to be cited in a published work.
        Primary SIESTA paper
          DOI: www.doi.org/10.1088/0953-8984/14/11/302
        Spin-orbit coupling (on-site approximation)
          DOI: www.doi.org/10.1088/0953-8984/19/19/489001

WARNING: alloc-realloc-dealloc name mismatch
         Name: atomlist isa
         Node:     0
         Subsequent mismatches will not be reported
>> End of run:   1-JUN-2023  12:22:39
Job completed