>> Start of run:  17-OCT-2023   9:34:47

reinit: Reading from standard input
reinit: Dumped input in INPUT_TMP.01929
************************** Dump of input data file ****************************
# mpirun -np 4 siesta-4.1.5 < AT.fdf > AT.out &
SystemLabel      AT
NumberOfAtoms    30
NumberOfSpecies  4
%block ChemicalSpeciesLabel
    1    1  H
    2    7  N
    3   14  Si
    4    8  O
%endblock ChemicalSpeciesLabel
# This overrides Defaults.fdf configuration
MD.TypeOfRun                Verlet # CG, Verlet
MD.Steps                    600
MD.Quench                   True
AtomicCoordinatesFormat NotScaledCartesianAng
%block AtomicCoordinatesAndAtomicSpecies
    2.34225298   -5.16237579    0.00000000   1       1  H
    1.41092585   -4.66778005    0.00000000   2       2  N
   -0.16326925   -5.53736720    0.00000000   3       3  Si
   -0.08771862   -7.03963990    0.00000000   1       4  H
   -1.61493192   -4.63669912    0.00000000   2       5  N
   -1.08665785   -2.90737756    0.00000000   3       6  Si
   -1.54348961   -0.73201300    0.00000000   3       7  Si
   -3.15602113   -0.10108766    0.00000000   2       8  N
   -3.41929253    0.94700306    0.00000000   1       9  H
   -3.96222423   -0.77533954    0.00000000   1      10  H
   -0.19671030    0.39547727    0.00000000   2      11  N
    1.48094281   -0.04988905    0.00000000   3      12  Si
    2.42867586    1.11801689    0.00000000   1      13  H
    2.29859712   -1.58374094    0.00000000   2      14  N
    1.11117323   -2.85363940    0.00000000   3      15  Si
    0.62919549    7.22722152    0.00000000   1      16  H
   -0.19114816    6.55147409    0.00000000   2      17  N
   -1.83905526    7.27405675    0.00000000   3      18  Si
   -1.71060632    8.77529920    0.00000000   1      19  H
   -3.57212606    5.94523660    0.00000000   3      20  Si
   -5.91897070    5.90119456    0.00000000   3      21  Si
   -6.48160642    6.62503242   -1.20383893   1      22  H
   -6.19811382    4.41955230   -0.09134711   1      23  H
   -6.48162172    6.45339474    1.29016579   1      24  H
   -2.66057846    3.87192698    0.00000000   3      25  Si
   -3.60071106    2.58230191    0.00000000   4      26  O
   -0.88004388    3.68889646    0.00000000   2      27  N
   -0.54087840    2.66448297    0.00000000   1      28  H
    0.42741269    4.86953117    0.00000000   3      29  Si
    1.97918166    4.56029820    0.00000000   4      30  O
%endblock AtomicCoordinatesAndAtomicSpecies
# Unit Cell
LatticeConstant 1.0 Ang
%block LatticeVectors
    18.005604    0.000000    0.000000
    0.000000   24.777729    0.000000
    0.000000    0.000000   10.327559
%endblock LatticeVectors
%block Geometry.Constraints
    atom all 0.0 0.0 1.0 # constrain along z Cartesian vector
    clear-prev [22 -- 24]
%endblock
%include ../../../../Defaults.fdf
************************** End of input data file *****************************

reinit: -----------------------------------------------------------------------
reinit: System Name:
reinit: -----------------------------------------------------------------------
reinit: System Label: AT
reinit: -----------------------------------------------------------------------

initatom: Reading input for the pseudopotentials and atomic orbitals ----------
Species number:   1 Atomic number:    1 Label: H
Species number:   2 Atomic number:    7 Label: N
Species number:   3 Atomic number:   14 Label: Si
Species number:   4 Atomic number:    8 Label: O

Ground state valence configuration:   1s01
Reading pseudopotential information in formatted form from H.psf

Pseudopotential generated from a relativistic atomic calculation

Valence configuration for pseudopotential generation:
1s( 1.00) rc: 0.01
2p( 0.00) rc: 0.60
3d( 0.00) rc: 1.99
4f( 0.00) rc: 2.49
Ground state valence configuration:   2s02  2p03
Reading pseudopotential information in formatted form from N.psf

[...]

Valence configuration for pseudopotential generation:
3s( 2.00) rc: 1.67
3p( 2.00) rc: 2.04
3d( 0.00) rc: 2.89
4f( 0.00) rc: 2.49
Ground state valence configuration:   2s02  2p04
Reading pseudopotential information in formatted form from O.psf

Pseudopotential generated from a relativistic atomic calculation

Valence configuration for pseudopotential generation:
2s( 2.00) rc: 0.45
2p( 4.00) rc: 0.92
3d( 0.00) rc: 2.24
4f( 0.00) rc: 0.25
For H, standard SIESTA heuristics set lmxkb to 2
 (one more than the basis l, including polarization orbitals).
Use PS.lmax or PS.KBprojectors blocks to override.
For N, standard SIESTA heuristics set lmxkb to 3
 (one more than the basis l, including polarization orbitals).
Use PS.lmax or PS.KBprojectors blocks to override.
For Si, standard SIESTA heuristics set lmxkb to 3
 (one more than the basis l, including polarization orbitals).
Use PS.lmax or PS.KBprojectors blocks to override.
For O, standard SIESTA heuristics set lmxkb to 3
 (one more than the basis l, including polarization orbitals).
Use PS.lmax or PS.KBprojectors blocks to override.

<basis_specs>
H                    Z=   1    Mass=  1.0100        Charge= 0.17977+309
Lmxo=0 Lmxkb= 2    BasisType=split      Semic=F
L=0  Nsemic=0  Cnfigmx=1
          i=1  nzeta=2  polorb=1  (1s)
            splnorm:   0.62000
               vcte:    0.0000
               rinn:    0.0000
               qcoe:    0.0000
               qyuk:    0.0000
               qwid:   0.10000E-01
                rcs:    0.0000      0.0000
            lambdas:    1.0000      1.0000
L=0  Nkbl=1  erefs: 0.17977+309
L=1  Nkbl=1  erefs: 0.17977+309
L=2  Nkbl=1  erefs: 0.17977+309
</basis_specs>

atom: Called for H                     (Z =   1)

read_vps: Pseudopotential generation method:
read_vps: ATM4.2.7  Troullier-Martins
Valence charge for ps generation:    1.00000

xc_check: Exchange-correlation functional:
xc_check: GGA Perdew, Burke & Ernzerhof 1996
V l=0 = -2*Zval/r beyond r=  0.0098
V l=1 = -2*Zval/r beyond r=  0.5817
V l=2 = -2*Zval/r beyond r=  1.9372
All V_l potentials equal beyond r=  1.9372
This should be close to max(r_c) in ps generation
All pots = -2*Zval/r beyond r=  1.9372

VLOCAL1: 99.0% of the norm of Vloc inside     11.567 Ry
VLOCAL1: 99.9% of the norm of Vloc inside     26.362 Ry
atom: Maximum radius for 4*pi*r*r*local-pseudopot. charge    2.25106
atom: Maximum radius for r*vlocal+2*Zval:    1.91306
GHOST: No ghost state for L =  0
GHOST: No ghost state for L =  1
GHOST: No ghost state for L =  2

KBgen: Kleinman-Bylander projectors:
   l= 0   rc=  2.036604   el= -0.477180   Ekb= -6.081590   kbcos= -0.277285
   l= 1   rc=  2.195416   el=  0.001076   Ekb= -0.926943   kbcos= -0.034643
   l= 2   rc=  2.251056   el=  0.002010   Ekb= -0.130941   kbcos= -0.009788

KBgen: Total number of Kleinman-Bylander projectors:    9
atom: -------------------------------------------------------------------------

atom: SANKEY-TYPE ORBITALS:
atom: Selected multiple-zeta basis: split

SPLIT: Orbitals with angular momentum L= 0

SPLIT: Basis orbitals for state 1s

SPLIT: PAO cut-off radius determined from an
SPLIT: energy shift=  0.002000 Ry

   izeta = 1
                 lambda =    1.000000
                     rc =    6.518340
                 energy =   -0.475305
                kinetic =    0.912139
    potential(screened) =   -1.387444
       potential(ionic) =   -1.907295

   izeta = 2
                 rmatch =    2.141150
              splitnorm =    0.620000
                 energy =    0.566467
                kinetic =    3.772856
    potential(screened) =   -3.206389
       potential(ionic) =   -3.759093

POLgen: Perturbative polarization orbital with L=  1

POLgen: Polarization orbital for state 1s

   izeta = 1
                     rc =    6.518340
                 energy =    0.533861
                kinetic =    1.121086
    potential(screened) =   -0.587225
       potential(ionic) =   -1.053027
atom: Total number of Sankey-type orbitals:  5

atm_pop: Valence configuration (for local Pseudopot. screening):
 1s( 1.00)
Vna: chval, zval:    1.00000   1.00000

Vna:  Cut-off radius for the neutral-atom potential:   6.518340

atom: _________________________________________________________________________

<basis_specs>
N                    Z=   7    Mass=  14.010        Charge= 0.17977+309
Lmxo=1 Lmxkb= 3    BasisType=split      Semic=F
L=0  Nsemic=0  Cnfigmx=2
          i=1  nzeta=2  polorb=0  (2s)
            splnorm:   0.28000
               vcte:    0.0000
               rinn:    0.0000
               qcoe:    0.0000
               qyuk:    0.0000
               qwid:   0.10000E-01
                rcs:    0.0000      0.0000
            lambdas:    1.0000      1.0000
L=1  Nsemic=0  Cnfigmx=2
          i=1  nzeta=2  polorb=1  (2p)
            splnorm:   0.28000
               vcte:    0.0000
               rinn:    0.0000
               qcoe:    0.0000
               qyuk:    0.0000
               qwid:   0.10000E-01
                rcs:    0.0000      0.0000
            lambdas:    1.0000      1.0000
L=0  Nkbl=1  erefs: 0.17977+309
L=1  Nkbl=1  erefs: 0.17977+309
L=2  Nkbl=1  erefs: 0.17977+309
L=3  Nkbl=1  erefs: 0.17977+309
</basis_specs>

[...]

KBgen: Kleinman-Bylander projectors:
   l= 0   rc=  3.417763   el= -1.365098   Ekb= -4.433130   kbcos= -0.707855
   l= 1   rc=  3.375302   el= -0.521201   Ekb=-13.264039   kbcos= -0.535594
   l= 2   rc=  3.872880   el=  0.001991   Ekb= -0.641094   kbcos= -0.062456
   l= 3   rc=  3.970931   el=  0.003093   Ekb= -0.474517   kbcos= -0.018236

[...]

SPLIT: Basis orbitals for state 2p

[...]

POLgen: Polarization orbital for state 2p

[...]

atm_pop: Valence configuration (for local Pseudopot. screening):
 2s( 2.00)
 2p( 3.00)
Vna: chval, zval:    5.00000   5.00000

[...]

KBgen: Kleinman-Bylander projectors:
   l= 0   rc=  3.075247   el= -0.794092   Ekb=  5.879390   kbcos=  0.167461
   l= 1   rc=  3.153101   el= -0.300068   Ekb=  2.642817   kbcos=  0.058301
   l= 2   rc=  3.273594   el=  0.001958   Ekb= -1.185135   kbcos= -0.104411
   l= 3   rc=  3.232927   el=  0.003046   Ekb= -0.497174   kbcos= -0.015889

[...]

<basis_specs>
O                    Z=   8    Mass=  16.000        Charge= 0.17977+309
Lmxo=1 Lmxkb= 3    BasisType=split      Semic=F
L=0  Nsemic=0  Cnfigmx=2
          i=1  nzeta=2  polorb=0  (2s)
            splnorm:   0.28000
               vcte:    0.0000
               rinn:    0.0000
               qcoe:    0.0000
               qyuk:    0.0000
               qwid:   0.10000E-01
                rcs:    0.0000      0.0000
            lambdas:    1.0000      1.0000
L=1  Nsemic=0  Cnfigmx=2
          i=1  nzeta=2  polorb=1  (2p)
            splnorm:   0.28000
               vcte:    0.0000
               rinn:    0.0000
               qcoe:    0.0000
               qyuk:    0.0000
               qwid:   0.10000E-01
                rcs:    0.0000      0.0000
            lambdas:    1.0000      1.0000
L=0  Nkbl=1  erefs: 0.17977+309
L=1  Nkbl=1  erefs: 0.17977+309
L=2  Nkbl=1  erefs: 0.17977+309
L=3  Nkbl=1  erefs: 0.17977+309
</basis_specs>

atom: Called for O                     (Z =   8)

read_vps: Pseudopotential generation method:
read_vps: ATM4.2.7  Troullier-Martins
Valence charge for ps generation:    6.00000

[...]
          26      70:   87  114:  144    1:   25
          27       1:   15  117:  144    1:   25
          28      16:   69  117:  144   26:   60
          29      70:   89   49:  113    1:   24
          30      70:   87  114:  144   26:   60
          31       1:   15  117:  144   26:   60
          32      88:  100  114:  144    1:   25
Setting up quadratic distribution...
ExtMesh (bp) on 0 =   168 x   130 x   126 =     2751840
PhiOnMesh: Number of (b)points on node 0 =                26928
PhiOnMesh: nlist on node 0 =               401746

        iscf     Eharris(eV)        E_KS(eV)     FreeEng(eV)     dDmax    Ef(eV) dHmax(eV)
   scf:    1    -3999.675438    -3999.675314    -3999.675381  0.000031 -3.934478  0.000354
     spin moment: S , {S} =    0.00000  -0.00000  -0.00000  -0.00000
   scf:    2    -3999.675314    -3999.675314    -3999.675381  0.000021 -3.934526  0.000949
     spin moment: S , {S} =    0.00000  -0.00000   0.00000  -0.00000
   scf:    3    -3999.675314    -3999.675314    -3999.675381  0.000016 -3.934495  0.000043
     spin moment: S , {S} =    0.00000  -0.00000  -0.00000  -0.00000
   scf:    4    -3999.675314    -3999.675314    -3999.675381  0.000001 -3.934497  0.000016
     spin moment: S , {S} =    0.00000  -0.00000  -0.00000  -0.00000
   scf:    5    -3999.675314    -3999.675314    -3999.675381  0.000001 -3.934499  0.000005
     spin moment: S , {S} =    0.00000  -0.00000  -0.00000  -0.00000
   scf:    6    -3999.675314    -3999.675314    -3999.675381  0.000000 -3.934499  0.000002
     spin moment: S , {S} =    0.00000  -0.00000  -0.00000  -0.00000
   scf:    7    -3999.675314    -3999.675314    -3999.675381  0.000000 -3.934498  0.000001
     spin moment: S , {S} =    0.00000  -0.00000   0.00000  -0.00000
   scf:    8    -3999.675314    -3999.675314    -3999.675381  0.000000 -3.934498  0.000000
     spin moment: S , {S} =    0.00000  -0.00000   0.00000  -0.00000

SCF Convergence by DM+H criterion
max |DM_out - DM_in|         :     0.0000000377
max |H_out - H_in|      (eV) :     0.0000003145
SCF cycle converged after 8 iterations

Using DM_out to compute the final energy and forces
No. of atoms with KB's overlaping orbs in proc 0. Max # of overlaps:      25     188

siesta: E_KS(eV) =            -3999.6753
     spin moment: S , {S} =    0.00000  -0.00000   0.00000  -0.00000

siesta: Atomic forces (eV/Ang):
     1   -0.000248   -0.000014   -0.000001
     2    0.000754   -0.000077   -0.000003
     3    0.004571   -0.002332   -0.000000
     4   -0.000504   -0.000057    0.000000
     5    0.004966   -0.004431   -0.000003
     6    0.001922   -0.004095   -0.000002
     7    0.000066   -0.003325   -0.000016
     8   -0.000312   -0.000100    0.000060
     9    0.000007   -0.000001   -0.000076
    10   -0.000024   -0.000013   -0.000009
    11   -0.001152   -0.000166    0.000009
    12   -0.000001    0.000205    0.000001
    13   -0.000037    0.000017    0.000001
    14    0.000506    0.001628   -0.000003
    15    0.003016   -0.000080    0.000013
    16    0.000004    0.000001   -0.001058
    17    0.000042   -0.000004   -0.000906
    18    0.000116    0.000007    0.006008
    19    0.000001    0.000002   -0.001579
    20    0.000243    0.000089   -0.000649
    21    0.000090    0.000412   -0.010748
    22   -0.000002    0.000003   -0.000004
    23    0.000011    0.000017    0.000007
    24   -0.000001    0.000003    0.000002
    25    0.000023   -0.000003    0.001289
    26    0.000002   -0.000028    0.000389
    27   -0.000015   -0.000015   -0.000639
    28    0.000004   -0.000015   -0.000121
    29    0.000060    0.000041   -0.000156
    30    0.000001    0.000003    0.000246
   Tot    0.014106   -0.012327   -0.007949
   Max    0.010748
   Res    0.001750    sqrt( Sum f_i^2 / 3N )
   Max    0.004966    constrained

Stress tensor Voigt[x,y,z,yz,xz,xy] (kbar):       -0.35       -0.07       -0.14       -0.01        0.00        0.22
(Free)E + p*V (eV/cell)    -3999.1329
Target enthalpy (eV/cell)    -3999.6754

siesta: Stress tensor (static) (eV/Ang**3):
        -0.000220    0.000139    0.000000
         0.000139   -0.000044   -0.000009
         0.000000   -0.000009   -0.000089

siesta: Pressure (static):          0.18863798  kBar

siesta: Stress tensor (total) (eV/Ang**3):
        -0.000220    0.000139    0.000000
         0.000139   -0.000044   -0.000009
         0.000000   -0.000009   -0.000089

siesta: Pressure (total):          0.18864008  kBar

outcoor: Relaxed atomic coordinates (Ang):
    2.34252331   -5.16238821    0.00000000   1       1  H
    1.41196868   -4.66696035    0.00000000   2       2  N
   -0.16079498   -5.53879684    0.00000000   3       3  Si
   -0.08726873   -7.04133446    0.00000000   1       4  H
   -1.61203059   -4.63878284    0.00000000   2       5  N
   -1.08586070   -2.90887817    0.00000000   3       6  Si
   -1.54360444   -0.73308531    0.00000000   3       7  Si
   -3.15587710   -0.10130263    0.00000000   2       8  N
   -3.41922570    0.94693979    0.00000000   1       9  H
   -3.96224165   -0.77534880    0.00000000   1      10  H
   -0.19731765    0.39519116    0.00000000   2      11  N
    1.48042974   -0.04911595    0.00000000   3      12  Si
    2.42867240    1.11809514    0.00000000   1      13  H
    2.29903948   -1.58243082    0.00000000   2      14  N
    1.11223273   -2.85275070    0.00000000   3      15  Si
    0.62920148    7.22722261    0.00000000   1      16  H
   -0.19112490    6.55147122    0.00000000   2      17  N
   -1.83899922    7.27407078    0.00000000   3      18  Si
   -1.71060471    8.77530196    0.00000000   1      19  H
   -3.57204024    5.94526317    0.00000000   3      20  Si
   -5.91882789    5.90142825    0.00000000   3      21  Si
   -6.48160663    6.62504310   -1.20384575   1      22  H
   -6.19794649    4.41986218   -0.09142810   1      23  H
   -6.48162088    6.45340138    1.29016984   1      24  H
   -2.66057409    3.87190883    0.00000000   3      25  Si
   -3.60071216    2.58229717    0.00000000   4      26  O
   -0.88003394    3.68889372    0.00000000   2      27  N
   -0.54088645    2.66448381    0.00000000   1      28  H
    0.42741712    4.86952867    0.00000000   3      29  Si
    1.97918218    4.56029757    0.00000000   4      30  O

siesta: Eigenvalues (eV):
ik =     1
  -23.0438  -23.0438  -22.9219  -22.9219  -21.8792  -21.8792  -21.3070  -21.3070  -21.0036  -21.0036
  -20.2891  -20.2891  -19.4561  -19.4561  -19.2062  -19.2062  -18.7097  -18.7097  -15.2426  -15.2426
  -14.2844  -14.2844  -13.6279  -13.6279  -13.5854  -13.5854  -13.2932  -13.2932  -12.8695  -12.8695
  -12.4113  -12.4113  -12.0502  -12.0502  -11.8983  -11.8983  -11.5371  -11.5371  -11.4121  -11.4121
  -10.8642  -10.8642  -10.7458  -10.7458  -10.1992  -10.1992   -9.7470   -9.7470   -9.4797   -9.4797
   -9.3248   -9.3248   -9.1423   -9.1423   -9.0803   -9.0803   -8.8430   -8.8430   -8.7340   -8.7340
   -8.5247   -8.5247   -8.2832   -8.2832   -8.2163   -8.2163   -8.1964   -8.1964   -8.1199   -8.1199
   -7.8185   -7.8185   -7.5204   -7.5204   -7.3634   -7.3634   -7.3384   -7.3384   -6.9783   -6.9783
   -6.9640   -6.9640   -6.7330   -6.7330   -6.6804   -6.6804   -6.3229   -6.3229   -6.3029   -6.3029
   -5.9254   -5.9254   -5.7493   -5.7493   -5.5931   -5.5931   -4.1854   -4.1854   -3.6836   -3.6836
   -2.8752   -2.8752   -2.3617   -2.3617   -2.2792   -2.2792   -2.1884   -2.1884   -2.1461   -2.1461
   -2.0025   -2.0025   -1.7647   -1.7647   -1.7464   -1.7464   -1.5518   -1.5518   -1.4229   -1.4229
   -1.2058   -1.2058   -0.4776   -0.4776   -0.3538   -0.3538   -0.2860   -0.2860   -0.2059   -0.2059
   -0.1038   -0.1038   -0.0960   -0.0960    0.1256    0.1256    0.5527    0.5527    0.5667    0.5667
    0.6286    0.6286    0.8166    0.8166    1.2873    1.2873    1.2913    1.2913    1.4195    1.4195
    1.4343    1.4343    1.6997    1.6997    1.8825    1.8825    2.1378    2.1378    2.2844    2.2844
    2.4334    2.4334    2.6561    2.6561    2.8479    2.8479    3.0008    3.0008    3.0628    3.0628
    3.1029    3.1029    3.2136    3.2136    3.2461    3.2461    3.3322    3.3322    3.5574    3.5574
    3.9353    3.9353    4.0595    4.0595    4.2049    4.2049    4.3647    4.3647    4.3753    4.3753
    4.5850    4.5850    4.7698    4.7698    4.7748    4.7748    4.9688    4.9688    5.0759    5.0759
    5.3073    5.3073    5.5345    5.5345    5.5442    5.5442    5.7286    5.7286    5.7976    5.7976
    6.0660    6.0660    6.1659    6.1659    6.2153    6.2153    6.4668    6.4668    6.6401    6.6401
    6.7709    6.7709    6.8511    6.8511    6.9506    6.9506    7.2607    7.2607    7.2905    7.2905
    7.4841    7.4841    7.5268    7.5268    7.7319    7.7319    7.7859    7.7859    7.9879    7.9879
    8.4053    8.4053    8.4462    8.4462    8.5154    8.5154    8.6532    8.6532    8.7965    8.7965
    8.9853    8.9853    9.1555    9.1555    9.1602    9.1602    9.3866    9.3866    9.6951    9.6951
    9.7606    9.7606    9.8726    9.8726    9.9154    9.9154   10.0113   10.0113   10.1362   10.1362
   10.6979   10.6979   10.8561   10.8561   11.1165   11.1165   11.2204   11.2204   11.3143   11.3143
   11.4416   11.4416   11.5407   11.5407   11.7423   11.7423   11.8811   11.8811   11.9413   11.9413
   12.3175   12.3175   12.4097   12.4097   12.4894   12.4894   12.8532   12.8532   12.9814   12.9814
   13.0174   13.0174   13.1687   13.1687   13.3204   13.3204   13.6499   13.6499   13.9170   13.9170
   14.0077   14.0077   14.4598   14.4598   14.5732   14.5732   14.9569   14.9569   15.1343   15.1343
   15.2214   15.2214   15.5780   15.5780   15.6652   15.6652   15.9880   15.9880   16.4715   16.4715
   16.8661   16.8661   17.0550   17.0550   17.1460   17.1460   17.2284   17.2284   17.6343   17.6343
   18.2161   18.2161   18.5214   18.5214   18.5788   18.5788   18.7358   18.7358   18.8542   18.8542
   18.9124   18.9124   19.3173   19.3173   19.9006   19.9006   20.0481   20.0481   20.6803   20.6803
   20.8699   20.8699   21.6443   21.6443   21.9259   21.9259   22.2555   22.2555   22.4224   22.4224
   22.6429   22.6429   23.0325   23.0325   23.3107   23.3107   23.5207   23.5207   24.5419   24.5419
   24.8998   24.8998   25.0624   25.0624   25.2834   25.2834   25.9286   25.9286   26.2240   26.2240
   26.6193   26.6193   26.7361   26.7361   26.9629   26.9629   28.0707   28.0707   28.5636   28.5636
   29.1430   29.1430   29.7452   29.7452   30.0873   30.0873   30.8392   30.8392   30.8949   30.8949
   31.1924   31.1924   31.3642   31.3642   31.3896   31.3896   31.5496   31.5496   32.1350   32.1350
   32.5608   32.5608   32.9964   32.9964   33.5047   33.5047   34.1314   34.1314   34.3167   34.3167
   34.5592   34.5592   35.2353   35.2353   35.8761   35.8761   36.1802   36.1802   36.9869   36.9869
   37.1579   37.1579   37.2177   37.2177   37.4155   37.4155   38.4348   38.4348   38.6529   38.6529
   39.1907   39.1907   39.4805   39.4805   40.2764   40.2764   40.4568   40.4568   40.4866   40.4866
   41.3672   41.3672   41.5787   41.5787   41.6562   41.6562   42.8330   42.8330   43.1950   43.1950
   43.3547   43.3547   43.7699   43.7699   43.7734   43.7734   44.2796   44.2796   44.7244   44.7244
   44.8924   44.8924   45.4014   45.4014   45.9264   45.9264   46.5999   46.5999   46.6205   46.6205
   46.9052   46.9052   47.3652   47.3652   47.9966   47.9966   48.1458   48.1458   48.7373   48.7373
   49.1265   49.1265   49.3221   49.3221   50.1330   50.1330   50.1789   50.1789   50.2716   50.2716
   50.8288   50.8288   50.8895   50.8895   51.4610   51.4610   52.6519   52.6519   52.6995   52.6995
   53.6341   53.6342   54.1320   54.1320   55.1036   55.1036   55.3667   55.3667   56.0577   56.0577
   56.7662   56.7662   56.8198   56.8198   57.9900   57.9900   58.5261   58.5261   58.8917   58.8917
   58.9014   58.9014   60.1975   60.1975   60.9368   60.9368   61.0038   61.0038   61.5134   61.5134
   62.8464   62.8464   63.6267   63.6267   64.1174   64.1174   65.1057   65.1057   66.4059   66.4059
   67.3103   67.3103   68.1795   68.1795   68.4006   68.4006   68.9751   68.9751   70.7268   70.7268
   71.6853   71.6853   72.9098   72.9098   83.3523   83.3523   89.2633   89.2633   89.5711   89.5711
   93.3248   93.3248   95.7125   95.7125   96.6597   96.6597   98.4437   98.4437  100.4058  100.4058
  102.6139  102.6139  103.4807  103.4807  118.0695  118.0695  122.3202  122.3202  124.1632  124.1632
  138.7410  138.7410  147.3716  147.3716
siesta: Fermi energy =      -3.934498 eV

siesta: Program's energy decomposition (eV):
siesta: Ebs     =     -1118.009052
siesta: Eions   =      3553.971015
siesta: Ena     =       375.263845
siesta: Ekin    =      2748.222167
siesta: Enl     =     -2527.745958
siesta: Eso     =        -0.004703
siesta: Edftu   =         0.000000
siesta: DEna    =        37.477319
siesta: DUscf   =        13.684332
siesta: DUext   =         0.000000
siesta: Exc     =     -1092.601303
siesta: eta*DQ  =         0.000000
siesta: Emadel  =         0.000000
siesta: Emeta   =         0.000000
siesta: Emolmec =         0.000000
siesta: Ekinion =         0.000009
siesta: Eharris =     -3999.675305
siesta: Etot    =     -3999.675305
siesta: FreeEng =     -3999.675372

siesta: Final energy (eV):
siesta:  Band Struct. =   -1118.009052
siesta:       Kinetic =    2748.222167
siesta:       Hartree =    8176.011990
siesta:       Edftu   =       0.000000
siesta:       Eso     =      -0.004703
siesta:    Ext. field =       0.000000
siesta:   Exch.-corr. =   -1092.601303
siesta:  Ion-electron =  -18800.173007
siesta:       Ion-ion =    4968.869541
siesta:       Ekinion =       0.000009
siesta:         Total =   -3999.675305
siesta:         Fermi =      -3.934498

siesta: Atomic forces (eV/Ang):
siesta:      1   -0.000248   -0.000014   -0.000001
siesta:      2    0.000754   -0.000077   -0.000003
siesta:      3    0.004571   -0.002332   -0.000000
siesta:      4   -0.000504   -0.000057    0.000000
siesta:      5    0.004966   -0.004431   -0.000003
siesta:      6    0.001922   -0.004095   -0.000002
siesta:      7    0.000066   -0.003325   -0.000016
siesta:      8   -0.000312   -0.000100    0.000060
siesta:      9    0.000007   -0.000001   -0.000076
siesta:     10   -0.000024   -0.000013   -0.000009
siesta:     11   -0.001152   -0.000166    0.000009
siesta:     12   -0.000001    0.000205    0.000001
siesta:     13   -0.000037    0.000017    0.000001
siesta:     14    0.000506    0.001628   -0.000003
siesta:     15    0.003016   -0.000080    0.000013
siesta:     16    0.000004    0.000001   -0.001058
siesta:     17    0.000042   -0.000004   -0.000906
siesta:     18    0.000116    0.000007    0.006008
siesta:     19    0.000001    0.000002   -0.001579
siesta:     20    0.000243    0.000089   -0.000649
siesta:     21    0.000090    0.000412   -0.010748
siesta:     22   -0.000002    0.000003   -0.000004
siesta:     23    0.000011    0.000017    0.000007
siesta:     24   -0.000001    0.000003    0.000002
siesta:     25    0.000023   -0.000003    0.001289
siesta:     26    0.000002   -0.000028    0.000389
siesta:     27   -0.000015   -0.000015   -0.000639
siesta:     28    0.000004   -0.000015   -0.000121
siesta:     29    0.000060    0.000041   -0.000156
siesta:     30    0.000001    0.000003    0.000246
siesta: ----------------------------------------
siesta:    Tot    0.014106   -0.012327   -0.007949

siesta: Stress tensor (static) (eV/Ang**3):
siesta:    -0.000220    0.000139    0.000000
siesta:     0.000139   -0.000044   -0.000009
siesta:     0.000000   -0.000009   -0.000089

siesta: Cell volume =       4607.516273 Ang**3

siesta: Pressure (static):
siesta:                Solid            Molecule  Units
siesta:           0.00000128          0.00000122  Ry/Bohr**3
siesta:           0.00011774          0.00011180  eV/Ang**3
siesta:           0.18863798          0.17912582  kBar
(Free)E+ p_basis*V_orbitals  =       -3978.547296
(Free)Eharris+ p_basis*V_orbitals  =       -3978.547296
     spin moment: S , {S} =    0.00000  -0.00000   0.00000  -0.00000

siesta: Electric dipole (a.u.)  =   -1.311242    2.272604   -0.000249
siesta: Electric dipole (Debye) =   -3.332848    5.776387   -0.000633

cite: Please see "AT.bib" for an exhaustive BiBTeX file.
cite: Please clearly indicate Siesta version in published work: v4.1.5-1-g384057250
cite: This calculation has made use of the following articles
cite: which are encouraged to be cited in a published work.
        Primary SIESTA paper
          DOI: www.doi.org/10.1088/0953-8984/14/11/302
        Spin-orbit coupling (on-site approximation)
          DOI: www.doi.org/10.1088/0953-8984/19/19/489001

WARNING: alloc-realloc-dealloc name mismatch
         Name: atomlist isa
         Node:     0
         Subsequent mismatches will not be reported
>> End of run:  17-OCT-2023  10:21:16
Job completed