>> Start of run:   4-JUL-2023  10:06:50

reinit: Reading from standard input
reinit: Dumped input in INPUT_TMP.37342
************************** Dump of input data file ****************************
SystemLabel      GC
NumberOfAtoms    29
NumberOfSpecies  4
%block ChemicalSpeciesLabel
    1    8  O
    2    7  N
    3   14  Si
    4    1  H
%endblock ChemicalSpeciesLabel
# Single point calculation
MD.TypeOfRun                CG
MD.Steps                    0
SCF.MustConverge            F # In case it does not. There can be 2 very close atoms
AtomicCoordinatesFormat NotScaledCartesianAng
%block AtomicCoordinatesAndAtomicSpecies
0.958671510    3.803529300    0.000000000       1
-3.038688210   0.998073330    0.000000000       2
2.066567750    1.099065770    0.000000000       2
1.029569860    -1.834680850   0.000000000       2
-2.108567660   -1.881798240   0.000000000       2
3.912411070    -1.180894430   0.000000000       2
-1.235636790   1.044983000    0.000000000       3
-0.501909240   -1.031832280   0.000000000       3
0.629463280    2.232755840    0.000000000       3
2.280054370    -0.658293540   0.000000000       3
-3.424812990   -0.662324160   0.000000000       3
2.965974160    1.682263990    0.000000000       4
-4.796229390   -1.238728480   0.000000000       4
4.096559410    -2.214148760   0.000000000       4
4.792108680    -0.529147250   0.000000000       4
-2.266861300   -2.922393730   0.000000000       4
3.997305750    4.373919280    0.000000000       3
5.922783500    5.565548610    0.000000000       3
5.457977110    1.639364910    0.000000000       3
7.529157030    4.086411500    0.000000000       3
4.099590290    2.664564590    0.000000000       2
2.417927660    5.044148770    0.000000000       2
7.111047010    2.354528590    0.000000000       2
6.231274320    7.030209970    0.000000000       4
9.020829940    4.286390960    0.000000000       4
2.233301220    6.079022500    0.000000000       4
1.525835870    4.372860040    0.000000000       4
5.447846510    0.041136390    0.000000000       1
7.887645390    1.632698390    0.000000000       4
%endblock AtomicCoordinatesAndAtomicSpecies
%include ../../../Defaults.fdf
************************** End of input data file *****************************

reinit: -----------------------------------------------------------------------
reinit: System Name:
reinit: -----------------------------------------------------------------------
reinit: System Label: GC
reinit: -----------------------------------------------------------------------

initatom: Reading input for the pseudopotentials and atomic orbitals ----------
Species number:   1 Atomic number:    8 Label: O
Species number:   2 Atomic number:    7 Label: N
Species number:   3 Atomic number:   14 Label: Si
Species number:   4 Atomic number:    1 Label: H

Ground state valence configuration:   2s02  2p04
Reading pseudopotential information in formatted form from O.psf

Pseudopotential generated from a relativistic atomic calculation

Valence configuration for pseudopotential generation:
2s( 2.00) rc: 0.45
2p( 4.00) rc: 0.92
3d( 0.00) rc: 2.24
4f( 0.00) rc: 0.25
Ground state valence configuration:   2s02  2p03
Reading pseudopotential information in formatted form from N.psf

[...]

Valence configuration for pseudopotential generation:
2s( 2.00) rc: 0.94
2p( 3.00) rc: 0.59
3d( 0.00) rc: 3.46
4f( 0.00) rc: 2.47
Ground state valence configuration:   3s02  3p02
Reading pseudopotential information in formatted form from Si.psf

[...]

Valence configuration for pseudopotential generation:
3s( 2.00) rc: 1.67
3p( 2.00) rc: 2.04
3d( 0.00) rc: 2.89
4f( 0.00) rc: 2.49
Ground state valence configuration:   1s01
Reading pseudopotential information in formatted form from H.psf

Pseudopotential generated from a relativistic atomic calculation

Valence configuration for pseudopotential generation:
1s( 1.00) rc: 0.01
2p( 0.00) rc: 0.60
3d( 0.00) rc: 1.99
4f( 0.00) rc: 2.49
For O, standard SIESTA heuristics set lmxkb to 3
 (one more than the basis l, including polarization orbitals).
Use PS.lmax or PS.KBprojectors blocks to override.
For N, standard SIESTA heuristics set lmxkb to 3
 (one more than the basis l, including polarization orbitals).
Use PS.lmax or PS.KBprojectors blocks to override.
For Si, standard SIESTA heuristics set lmxkb to 3
 (one more than the basis l, including polarization orbitals).
Use PS.lmax or PS.KBprojectors blocks to override.
For H, standard SIESTA heuristics set lmxkb to 2
 (one more than the basis l, including polarization orbitals).
Use PS.lmax or PS.KBprojectors blocks to override.

<basis_specs>
O                    Z=   8    Mass=  16.000        Charge= 0.17977+309
Lmxo=1 Lmxkb= 3    BasisType=split      Semic=F
L=0  Nsemic=0  Cnfigmx=2
          i=1  nzeta=2  polorb=0  (2s)
            splnorm:   0.28000
               vcte:    0.0000
               rinn:    0.0000
               qcoe:    0.0000
               qyuk:    0.0000
               qwid:   0.10000E-01
                rcs:    0.0000      0.0000
            lambdas:    1.0000      1.0000
L=1  Nsemic=0  Cnfigmx=2
          i=1  nzeta=2  polorb=1  (2p)
            splnorm:   0.28000
               vcte:    0.0000
               rinn:    0.0000
               qcoe:    0.0000
               qyuk:    0.0000
               qwid:   0.10000E-01
                rcs:    0.0000      0.0000
            lambdas:    1.0000      1.0000
L=0  Nkbl=1  erefs: 0.17977+309
L=1  Nkbl=1  erefs: 0.17977+309
L=2  Nkbl=1  erefs: 0.17977+309
L=3  Nkbl=1  erefs: 0.17977+309
</basis_specs>

atom: Called for O                     (Z =   8)

read_vps: Pseudopotential generation method:
read_vps: ATM4.2.7  Troullier-Martins
Valence charge for ps generation:    6.00000

xc_check: Exchange-correlation functional:
xc_check: GGA Perdew, Burke & Ernzerhof 1996
V l=0 = -2*Zval/r beyond r=  1.1000
V l=1 = -2*Zval/r beyond r=  1.1000
V l=2 = -2*Zval/r beyond r=  2.2154
V l=3 = -2*Zval/r beyond r=  1.1000
All V_l potentials equal beyond r=  2.2154
This should be close to max(r_c) in ps generation
All pots = -2*Zval/r beyond r=  2.2154

VLOCAL1: 99.0% of the norm of Vloc inside      8.845 Ry
VLOCAL1: 99.9% of the norm of Vloc inside     20.157 Ry
atom: Maximum radius for 4*pi*r*r*local-pseudopot. charge    2.67231
atom: Maximum radius for r*vlocal+2*Zval:    2.32897
GHOST: No ghost state for L =  0
GHOST: No ghost state for L =  1
GHOST: No ghost state for L =  2
GHOST: No ghost state for L =  3

KBgen: Kleinman-Bylander projectors:
   l= 0   rc=  2.243238   el= -1.759686   Ekb=**********   kbcos= -0.171774
   l= 1   rc=  2.328968   el= -0.663873   Ekb=-14.506792   kbcos= -0.519897
   l= 2   rc=  2.573941   el=  0.002031   Ekb= -1.137373   kbcos= -0.019581
   l= 3   rc=  2.606321   el=  0.003153   Ekb= -1.013546   kbcos= -0.003122

KBgen: Total number of Kleinman-Bylander projectors:   16
atom: -------------------------------------------------------------------------

atom: SANKEY-TYPE ORBITALS:
atom: Selected multiple-zeta basis: split

SPLIT: Orbitals with angular momentum L= 0

SPLIT: Basis orbitals for state 2s

SPLIT: PAO cut-off radius determined from an
SPLIT: energy shift=  0.002000 Ry

   izeta = 1
                 lambda =    1.000000
                     rc =    4.243912
                 energy =   -1.758270
                kinetic =    3.286084
    potential(screened) =   -5.044353
       potential(ionic) =  -12.921184

   izeta = 2
                 rmatch =    2.187845
              splitnorm =    0.280000
                 energy =   -0.885018
                kinetic =    8.134434
    potential(screened) =   -9.019452
       potential(ionic) =  -17.710645

[...]

SPLIT: Basis orbitals for state 2p

[...]

POLgen: Perturbative polarization orbital with L=  2

POLgen: Polarization orbital for state 2p

   izeta = 1
                     rc =    5.314825
                 energy =    1.970580
                kinetic =    3.886128
    potential(screened) =   -1.915547
       potential(ionic) =   -7.749584
atom: Total number of Sankey-type orbitals: 13

atm_pop: Valence configuration (for local Pseudopot. screening):
 2s( 2.00)
 2p( 4.00)
Vna: chval, zval:    6.00000   6.00000

Vna:  Cut-off radius for the neutral-atom potential:   5.314825

atom: _________________________________________________________________________

[...]

KBgen: Kleinman-Bylander projectors:
   l= 0   rc=  3.417763   el= -1.365098   Ekb= -4.433130   kbcos= -0.707855
   l= 1   rc=  3.375302   el= -0.521201   Ekb=-13.264039   kbcos= -0.535594
   l= 2   rc=  3.872880   el=  0.001991   Ekb= -0.641094   kbcos= -0.062456
   l= 3   rc=  3.970931   el=  0.003093   Ekb= -0.474517   kbcos= -0.018236

[...]

<basis_specs>
Si                   Z=  14    Mass=  28.090        Charge= 0.17977+309
Lmxo=1 Lmxkb= 3    BasisType=split      Semic=F
L=0  Nsemic=0  Cnfigmx=3
          i=1  nzeta=2  polorb=0  (3s)
            splnorm:   0.28000
               vcte:    0.0000
               rinn:    0.0000
               qcoe:    0.0000
               qyuk:    0.0000
               qwid:   0.10000E-01
                rcs:    0.0000      0.0000
            lambdas:    1.0000      1.0000
L=1  Nsemic=0  Cnfigmx=3
          i=1  nzeta=2  polorb=1  (3p)
            splnorm:   0.28000
               vcte:    0.0000
               rinn:    0.0000
               qcoe:    0.0000
               qyuk:    0.0000
               qwid:   0.10000E-01
                rcs:    0.0000      0.0000
            lambdas:    1.0000      1.0000
L=0  Nkbl=1  erefs: 0.17977+309
L=1  Nkbl=1  erefs: 0.17977+309
L=2  Nkbl=1  erefs: 0.17977+309
L=3  Nkbl=1  erefs: 0.17977+309
</basis_specs>

[...]

KBgen: Kleinman-Bylander projectors:
   l= 0   rc=  3.075247   el= -0.794092   Ekb=  5.879390   kbcos=  0.167461
   l= 1   rc=  3.153101   el= -0.300068   Ekb=  2.642817   kbcos=  0.058301
   l= 2   rc=  3.273594   el=  0.001958   Ekb= -1.185135   kbcos= -0.104411
   l= 3   rc=  3.232927   el=  0.003046   Ekb= -0.497174   kbcos= -0.015889

[...]

SPLIT: Basis orbitals for state 3p

[...]

POLgen: Polarization orbital for state 3p

[...]

atm_pop: Valence configuration (for local Pseudopot. screening):
 3s( 2.00)
 3p( 2.00)
Vna: chval, zval:    4.00000   4.00000

[...]

<basis_specs>
H                    Z=   1    Mass=  1.0100        Charge= 0.17977+309
Lmxo=0 Lmxkb= 2    BasisType=split      Semic=F
L=0  Nsemic=0  Cnfigmx=1
          i=1  nzeta=2  polorb=1  (1s)
            splnorm:   0.62000
               vcte:    0.0000
               rinn:    0.0000
               qcoe:    0.0000
               qyuk:    0.0000
               qwid:   0.10000E-01
                rcs:    0.0000      0.0000
            lambdas:    1.0000      1.0000
L=0  Nkbl=1  erefs: 0.17977+309
L=1  Nkbl=1  erefs: 0.17977+309
L=2  Nkbl=1  erefs: 0.17977+309
</basis_specs>

atom: Called for H                     (Z =   1)

read_vps: Pseudopotential generation method:
read_vps: ATM4.2.7  Troullier-Martins
Valence charge for ps generation:    1.00000

xc_check: Exchange-correlation functional:
xc_check: GGA Perdew, Burke & Ernzerhof 1996
V l=0 = -2*Zval/r beyond r=  0.0098
V l=1 = -2*Zval/r beyond r=  0.5817
V l=2 = -2*Zval/r beyond r=  1.9372
[...]
   scf:   31    -4137.921217    -4137.921217    -4137.921217  0.000000 -3.738293  0.000001
     spin moment: S , {S} =    0.00000   0.00000  -0.00000  -0.00000

SCF Convergence by DM+H criterion
max |DM_out - DM_in|         :     0.0000001844
max |H_out - H_in|      (eV) :     0.0000008459
SCF cycle converged after 31 iterations

Using DM_out to compute the final energy and forces
No. of atoms with KB's overlaping orbs in proc 0. Max # of overlaps:      29     231

siesta: E_KS(eV) =            -4137.9212

siesta: E_KS - E_eggbox =     -4137.9212
     spin moment: S , {S} =    0.00000   0.00000  -0.00000  -0.00000

siesta: Atomic forces (eV/Ang):
     1  -18.815003  -22.653979    0.000000
     2   -0.069613    0.000490    0.000000
     3   -2.223000   -0.721881    0.000000
     4   -1.034001   -0.059163   -0.000000
     5   -0.094989    0.130271   -0.000000
     6   -9.511679   -6.626520    0.000000
     7   -0.042204    0.345070   -0.000000
     8    0.448431   -0.405711   -0.000000
     9   -0.277299   -2.084589    0.000000
    10    0.815905   -0.882365    0.000000
    11    0.042833    0.009072    0.000000
    12    0.355253    0.513499   -0.000000
    13   -0.193188    0.020005   -0.000000
    14   -0.530615   -0.599394   -0.000000
    15   -7.747855   -6.840054   -0.000000
    16    0.000394   -0.160018    0.000000
    17   -0.715394    1.958547    0.000000
    18    0.250355   -0.330494   -0.000000
    19    0.945518    1.688893    0.000000
    20    0.120785    0.619269    0.000000
    21    1.727453   -0.082961   -0.000000
    22   10.915739    7.760349   -0.000000
    23   -0.416916   -0.605463    0.000000
    24   -0.063922    0.260654    0.000000
    25    0.001754   -0.108617    0.000000
    26    0.523967    0.576705   -0.000000
    27   11.754863   12.396597   -0.000000
    28   13.241115   13.431269   -0.000000
    29    0.042917    0.030118   -0.000000
   Tot   -0.548397   -2.420401    0.000000
   Max   22.653979
   Res    4.749186    sqrt( Sum f_i^2 / 3N )
   Max   22.653979    constrained

Stress tensor Voigt[x,y,z,yz,xz,xy] (kbar):      -18.67      -14.99       -0.09       -0.00       -0.00      -17.27
(Free)E + p*V (eV/cell)    -4108.6933
Target enthalpy (eV/cell)    -4137.9212

mulliken: Atomic and Orbital Populations:

Species: O

Atom      Orb        Charge      Spin       Svec
    1  7 2pz       -0.00355   0.00000      0.000   0.000  -0.000
    1  9 3Pdxy      0.01227   0.00000      0.000  -0.000   0.000
    1 10 3Pdyz      0.00612   0.00000     -0.000   0.000   0.000
    1 11 3Pdz2      0.00304   0.00000     -0.000  -0.000  -0.000
    1 12 3Pdxz      0.00179   0.00000     -0.000  -0.000  -0.000
    1 13 3Pdx2-y2   0.00491   0.00000     -0.000  -0.000  -0.000
    1     Total     6.37243   0.00000      0.000  -0.000  -0.000

   28  7 2pz       -0.01032   0.00000      0.000  -0.000  -0.000
   28  9 3Pdxy      0.01357   0.00000     -0.000  -0.000  -0.000
   28 10 3Pdyz      0.00721   0.00000     -0.000  -0.000   0.000
   28 11 3Pdz2      0.00302   0.00000     -0.000   0.000   0.000
   28 12 3Pdxz      0.00197   0.00000     -0.000  -0.000   0.000
   28 13 3Pdx2-y2   0.00604   0.00000      0.000  -0.000  -0.000
   28     Total     6.36999   0.00000     -0.000   0.000  -0.000

Total              12.74242   0.00000      0.000   0.000  -0.000

[...]

Atom      Orb        Charge      Spin       Svec
    2  9 3Pdxy      0.00850   0.00000     -0.000  -0.000   0.000
    2 10 3Pdyz      0.01114   0.00000      0.000   0.000   0.000
    2 11 3Pdz2      0.00187   0.00000     -0.000  -0.000   0.000
    2 12 3Pdxz      0.00745   0.00000     -0.000  -0.000   0.000
    2 13 3Pdx2-y2   0.00935   0.00000      0.000  -0.000   0.000
    2     Total     5.37013   0.00000      0.000  -0.000  -0.000

    3  9 3Pdxy      0.00586   0.00000     -0.000  -0.000  -0.000
    3 10 3Pdyz      0.00394   0.00000     -0.000   0.000  -0.000
    3 11 3Pdz2      0.00062   0.00000     -0.000  -0.000  -0.000
    3 12 3Pdxz      0.00319   0.00000      0.000   0.000  -0.000
    3 13 3Pdx2-y2   0.00255   0.00000      0.000   0.000  -0.000
    3     Total     5.47475   0.00000     -0.000   0.000  -0.000

[...]

Atom      Orb        Charge      Spin       Svec
    7  9 3Pdxy      0.25302   0.00000     -0.000  -0.000   0.000
    7 10 3Pdyz      0.02937   0.00000     -0.000   0.000   0.000
    7 11 3Pdz2      0.01128   0.00000      0.000  -0.000   0.000
    7 12 3Pdxz      0.15611   0.00000     -0.000  -0.000  -0.000
    7 13 3Pdx2-y2   0.11281   0.00000     -0.000  -0.000   0.000
    7     Total     3.84392   0.00000      0.000  -0.000   0.000

    8  5 3px       -0.00376   0.00000     -0.000  -0.000  -0.000
    8  9 3Pdxy      0.25234   0.00000     -0.000  -0.000   0.000
    8 10 3Pdyz      0.10822   0.00000     -0.000   0.000  -0.000
    8 11 3Pdz2      0.01408   0.00000      0.000  -0.000   0.000
    8 12 3Pdxz      0.16053   0.00000     -0.000   0.000   0.000
    8 13 3Pdx2-y2   0.20787   0.00000     -0.000  -0.000   0.000
    8     Total     3.66340   0.00000     -0.000   0.000   0.000

[...]

   20  9 3Pdxy      0.09629   0.00000      0.000  -0.000  -0.000
   20 10 3Pdyz      0.12040   0.00000     -0.000  -0.000  -0.000
   20 11 3Pdz2      0.00930   0.00000     -0.000   0.000   0.000
   20 12 3Pdxz      0.02632   0.00000     -0.000   0.000   0.000
   20 13 3Pdx2-y2   0.18525   0.00000      0.000   0.000   0.000
   20     Total     3.55743   0.00000      0.000  -0.000  -0.000

[...]

Species: H

Atom      Orb        Charge      Spin       Svec
   12  3 2Ppy       0.08211   0.00000      0.000  -0.000   0.000
   12  4 2Ppz       0.04705   0.00000      0.000  -0.000  -0.000
   12  5 2Ppx       0.09571   0.00000     -0.000   0.000   0.000
   12     Total     0.88150   0.00000      0.000   0.000   0.000

   13  3 2Ppy       0.01912   0.00000      0.000  -0.000  -0.000
   13  4 2Ppz       0.01978   0.00000     -0.000   0.000   0.000
   13  5 2Ppx       0.03333   0.00000      0.000  -0.000   0.000
   13     Total     1.18846   0.00000      0.000  -0.000  -0.000

[...]

   29  3 2Ppy       0.02467   0.00000     -0.000  -0.000  -0.000
   29  4 2Ppz       0.03543   0.00000      0.000   0.000  -0.000
   29  5 2Ppx       0.02919   0.00000     -0.000   0.000  -0.000
   29     Total     0.76968   0.00000     -0.000  -0.000  -0.000

Total              98.00000   0.00000      0.000  -0.000  -0.000

siesta: Eigenvalues (eV):
ik =     1
  -26.2185  -26.2185  -26.1392  -26.1392  -21.7893  -21.7893  -21.2504  -21.2504  -20.9212  -20.9212
  -20.3007  -20.3007  -19.7408  -19.7408  -19.4483  -19.4483  -19.2952  -19.2952  -19.0600  -19.0600
  -15.5181  -15.5181  -15.0648  -15.0648  -14.4953  -14.4953  -13.6456  -13.6456  -13.2425  -13.2425
  -13.1018  -13.1018  -12.7439  -12.7439  -12.4671  -12.4671  -12.1463  -12.1463  -12.0864  -12.0864
  -11.0380  -11.0380  -10.7069  -10.7069  -10.5904  -10.5904  -10.2882  -10.2882   -9.9645   -9.9645
   -9.7887   -9.7887   -9.4121   -9.4121   -9.2327   -9.2327   -8.8740   -8.8740   -8.8252   -8.8252
   -8.7942   -8.7942   -8.6036   -8.6036   -8.5593   -8.5593   -8.3409   -8.3409   -8.2473   -8.2473
   -7.8658   -7.8658   -7.6778   -7.6778   -7.4960   -7.4960   -7.4605   -7.4605   -6.7795   -6.7795
   -6.7336   -6.7336   -6.3537   -6.3537   -6.1173   -6.1173   -6.0272   -6.0272   -5.6100   -5.6100
   -5.4371   -5.4371   -5.3926   -5.3926   -5.3553   -5.3553   -4.3135   -4.3135   -3.1657   -3.1657
   -2.4539   -2.4539   -2.2730   -2.2730   -2.1503   -2.1503   -2.1399   -2.1399   -1.9843   -1.9843
   -1.8754   -1.8754   -1.6149   -1.6149   -1.4576   -1.4576   -1.2201   -1.2201   -0.9507   -0.9507
   -0.8437   -0.8437   -0.6656   -0.6656   -0.3407   -0.3407   -0.2169   -0.2169    0.4695    0.4695
    0.5375    0.5375    0.5466    0.5466    0.7031    0.7031    0.8824    0.8824    1.1639    1.1639
    1.4521    1.4521    1.4671    1.4671    1.5779    1.5779    1.6775    1.6775    2.1244    2.1244
    2.3474    2.3474    2.5971    2.5971    2.6414    2.6414    2.7583    2.7583    2.9373    2.9373
    3.1187    3.1187    3.3713    3.3713    3.4357    3.4357    3.6143    3.6143    3.7506    3.7506
    4.1126    4.1126    4.1604    4.1604    4.3174    4.3174    4.4358    4.4358    4.4763    4.4763
    4.7234    4.7234    4.8332    4.8332    4.9769    4.9769    5.2467    5.2467    5.3663    5.3663
    5.5455    5.5455    5.6926    5.6926    5.7833    5.7833    5.8693    5.8693    5.9433    5.9433
    6.2219    6.2219    6.4747    6.4747    6.5602    6.5602    6.6676    6.6676    6.7489    6.7489
    7.2062    7.2062    7.2120    7.2120    7.3007    7.3007    7.5545    7.5545    7.6684    7.6684
    7.6939    7.6939    7.8462    7.8462    7.8727    7.8727    8.1195    8.1195    8.2495    8.2495
    8.4326    8.4326    8.6880    8.6880    8.7058    8.7058    8.7599    8.7599    9.0467    9.0467
    9.1619    9.1619    9.2183    9.2183    9.7241    9.7241    9.7473    9.7473   10.0283   10.0283
   10.1339   10.1339   10.2110   10.2110   10.3612   10.3612   10.7883   10.7883   11.0337   11.0337
   11.2283   11.2283   11.3853   11.3853   11.4599   11.4599   11.5866   11.5866   11.7521   11.7521
   12.4433   12.4433   12.4930   12.4930   12.6104   12.6104   12.7463   12.7463   12.9367   12.9367
   13.0878   13.0878   13.5602   13.5602   13.6380   13.6380   13.7381   13.7381   13.9755   13.9755
   14.1128   14.1128   14.6128   14.6128   14.7362   14.7362   15.1867   15.1867   15.2023   15.2023
   15.4542   15.4542   15.7821   15.7821   16.3822   16.3822   16.8047   16.8047   17.1509   17.1509
   17.2678   17.2678   17.5187   17.5187   17.6419   17.6419   17.7597   17.7597   18.0525   18.0525
   18.7625   18.7625   18.9857   18.9857   19.3314   19.3314   19.7389   19.7389   20.3621   20.3621
   20.7307   20.7307   20.9107   20.9107   21.4987   21.4987   21.7942   21.7942   22.3328   22.3328
   22.6367   22.6367   23.2599   23.2599   23.6134   23.6134   24.1033   24.1033   24.4544   24.4544
   24.8223   24.8223   25.0601   25.0601   25.3385   25.3385   26.0510   26.0510   27.4359   27.4359
   27.6478   27.6478   28.3969   28.3969   28.7541   28.7541   29.3688   29.3688   29.4950   29.4950
   29.8216   29.8216   30.5585   30.5585   30.6160   30.6160   30.9210   30.9210   30.9997   30.9997
   31.4158   31.4158   31.5366   31.5366   32.0234   32.0234   32.3202   32.3202   33.2256   33.2256
   33.3597   33.3597   34.1037   34.1037   35.1656   35.1656   35.1856   35.1856   35.5146   35.5146
   35.6971   35.6971   36.4529   36.4529   36.5056   36.5056   37.1306   37.1306   37.4091   37.4091
   37.6240   37.6240   38.3482   38.3482   38.6630   38.6630   39.2467   39.2467   39.6121   39.6121
   40.1278   40.1278   40.5770   40.5770   40.9671   40.9671   40.9757   40.9757   41.2358   41.2358
   41.5283   41.5283   42.2807   42.2807   42.8531   42.8531   43.0146   43.0146   43.0392   43.0392
   43.6153   43.6153   43.7910   43.7910   43.8838   43.8838   44.0480   44.0480   44.9362   44.9362
   45.5212   45.5212   45.5374   45.5374   46.1703   46.1703   46.4814   46.4814   46.5567   46.5567
   46.6116   46.6116   46.8932   46.8932   47.0883   47.0883   47.6040   47.6040   48.0794   48.0794
   48.7440   48.7440   49.0948   49.0948   49.5395   49.5395   49.7665   49.7665   50.4104   50.4104
   51.2395   51.2395   51.3607   51.3607   52.0439   52.0439   53.6502   53.6502   54.3086   54.3086
   54.9745   54.9745   55.0279   55.0279   55.6437   55.6437   55.8116   55.8116   56.2087   56.2087
   56.6984   56.6984   57.3140   57.3140   58.6226   58.6226   59.5092   59.5092   59.9027   59.9027
   60.0554   60.0554   60.0982   60.0982   60.3015   60.3015   60.5763   60.5763   61.7614   61.7614
   62.3923   62.3923   63.2829   63.2829   64.6092   64.6092   65.4477   65.4477   65.7359   65.7359
   67.8720   67.8720   68.0225   68.0225   69.5245   69.5245   70.0468   70.0468   71.7870   71.7870
   71.9446   71.9446   73.6745   73.6745   74.2060   74.2060   77.9006   77.9006   83.5626   83.5626
   90.3109   90.3109   90.9923   90.9923   91.9834   91.9834   93.3144   93.3144   93.4033   93.4033
   95.1851   95.1851   98.3212   98.3212  101.7553  101.7553  102.0925  102.0925  103.5208  103.5208
  106.5705  106.5705  109.4847  109.4847  111.6943  111.6943  120.7337  120.7337  123.9980  123.9980
  128.9127  128.9127  130.9639  130.9639  143.7712  143.7712  145.9331  145.9331  148.0105  148.0105
  165.6329  165.6329  182.7370  182.7370
siesta: Fermi energy =      -3.738293 eV

siesta: Program's energy decomposition (eV):
siesta: Ebs     =     -1157.122718
siesta: Eions   =      3585.165840
siesta: Ena     =       402.598116
siesta: Ekin    =      2967.011582
siesta: Enl     =     -2849.744317
siesta: Eso     =        -0.004461
siesta: Edftu   =         0.000000
siesta: DEna    =        48.339500
siesta: DUscf   =        14.788337
siesta: DUext   =         0.000000
siesta: Exc     =     -1135.744134
siesta: eta*DQ  =         0.000000
siesta: Emadel  =         0.000000
siesta: Emeta   =         0.000000
siesta: Emolmec =         0.000000
siesta: Ekinion =         0.000000
siesta: Eharris =     -4137.921217
siesta: Etot    =     -4137.921217
siesta: FreeEng =     -4137.921217

siesta: Final energy (eV):
siesta:  Band Struct. =   -1157.122718
siesta:       Kinetic =    2967.011582
siesta:       Hartree =    9599.525267
siesta:       Edftu   =       0.000000
siesta:       Eso     =      -0.004461
siesta:    Ext. field =       0.000000
siesta:   Exch.-corr. =   -1135.744134
siesta:  Ion-electron =  -21848.199456
siesta:       Ion-ion =    6279.489985
siesta:       Ekinion =       0.000000
siesta:         Total =   -4137.921217
siesta:         Fermi =      -3.738293

siesta: Atomic forces (eV/Ang):
siesta:      1  -18.815003  -22.653979    0.000000
siesta:      2   -0.069613    0.000490    0.000000
siesta:      3   -2.223000   -0.721881    0.000000
siesta:      4   -1.034001   -0.059163   -0.000000
siesta:      5   -0.094989    0.130271   -0.000000
siesta:      6   -9.511679   -6.626520    0.000000
siesta:      7   -0.042204    0.345070   -0.000000
siesta:      8    0.448431   -0.405711   -0.000000
siesta:      9   -0.277299   -2.084589    0.000000
siesta:     10    0.815905   -0.882365    0.000000
siesta:     11    0.042833    0.009072    0.000000
siesta:     12    0.355253    0.513499   -0.000000
siesta:     13   -0.193188    0.020005   -0.000000
siesta:     14   -0.530615   -0.599394   -0.000000
siesta:     15   -7.747855   -6.840054   -0.000000
siesta:     16    0.000394   -0.160018    0.000000
siesta:     17   -0.715394    1.958547    0.000000
siesta:     18    0.250355   -0.330494   -0.000000
siesta:     19    0.945518    1.688893    0.000000
siesta:     20    0.120785    0.619269    0.000000
siesta:     21    1.727453   -0.082961   -0.000000
siesta:     22   10.915739    7.760349   -0.000000
siesta:     23   -0.416916   -0.605463    0.000000
siesta:     24   -0.063922    0.260654    0.000000
siesta:     25    0.001754   -0.108617    0.000000
siesta:     26    0.523967    0.576705   -0.000000
siesta:     27   11.754863   12.396597   -0.000000
siesta:     28   13.241115   13.431269   -0.000000
siesta:     29    0.042917    0.030118   -0.000000
siesta: ----------------------------------------
siesta:    Tot   -0.548397   -2.420401    0.000000

siesta: Stress tensor (static) (eV/Ang**3):
siesta:    -0.011652   -0.010778   -0.000000
siesta:    -0.010778   -0.009354   -0.000000
siesta:    -0.000000   -0.000000   -0.000059

siesta: Cell volume =       4162.583395 Ang**3

siesta: Pressure (static):
siesta:                Solid            Molecule  Units
siesta:           0.00007647          0.00001711  Ry/Bohr**3
siesta:           0.00702159          0.00157059  eV/Ang**3
siesta:          11.24994467          2.51639707  kBar
(Free)E+ p_basis*V_orbitals  =       -4118.070800
(Free)Eharris+ p_basis*V_orbitals  =       -4118.070800
     spin moment: S , {S} =    0.00000   0.00000  -0.00000  -0.00000

siesta: Electric dipole (a.u.)  =    1.506112    0.198385    0.000000
siesta: Electric dipole (Debye) =    3.828158    0.504244    0.000000

cite: Please see "GC.bib" for an exhaustive BiBTeX file.
cite: Please clearly indicate Siesta version in published work: v4.1.5-1-g384057250
cite: This calculation has made use of the following articles
cite: which are encouraged to be cited in a published work.
        Primary SIESTA paper
          DOI: www.doi.org/10.1088/0953-8984/14/11/302
        Spin-orbit coupling (on-site approximation)
          DOI: www.doi.org/10.1088/0953-8984/19/19/489001

WARNING: alloc-realloc-dealloc name mismatch
         Name: atomlist isa
         Node:     0
         Subsequent mismatches will not be reported
>> End of run:   4-JUL-2023  10:11:46
Job completed