 NOTE: Siesta V5 introduces some new defaults for basis-set generation
 NOTE: which might lead to slightly different numerical results.
 NOTE: Please see the manual for full details and compatibility measures.

reinit: Reading from standard input
reinit: Dumping input in INPUT_TMP.89027
************************** Dump of input data file ****************************
# mpirun -np 8 siesta-5 < AT.fdf > AT.out &
SystemLabel      AT
NumberOfAtoms    30
NumberOfSpecies  4
%block ChemicalSpeciesLabel
    1    1  H ../../../Pseudos/VW/H/H.psf
    2    7  N ../../../Pseudos/VW/N/N.psf
    3   14  Si ../../../Pseudos/VW/Si/Si.psf
    4    8  O ../../../Pseudos/VW/O/O.psf
%endblock ChemicalSpeciesLabel
# This overrides Defaults.fdf configuration
XC.Functional               VDW
XC.Authors                  DRSLL
MD.Steps                    1000
%block Geometry.Constraints
    atom all 0.0 0.0 1.0 # constrain along z Cartesian vector
    atom [6]
    clear-prev [22 -- 24]
%endblock
AtomicCoordinatesFormat NotScaledCartesianAng
%block AtomicCoordinatesAndAtomicSpecies
    2.31653473   -5.14834903    0.00000000   1       1  H
    1.40295054   -4.64047007    0.00000000   2       2  N
   -0.17305462   -5.47759156    0.00000000   3       3  Si
   -0.07825592   -6.95235237    0.00000000   1       4  H
   -1.62086051   -4.60275182    0.00000000   2       5  N
   -1.09026419   -2.87456374    0.00000000   3       6  Si
   -1.54498205   -0.71056273    0.00000000   3       7  Si
   -3.13778666   -0.06337329    0.00000000   2       8  N
   -3.45478743    0.93546037    0.00000000   1       9  H
   -3.97865771   -0.64892738    0.00000000   1      10  H
   -0.19771536    0.39780325    0.00000000   2      11  N
    1.45681394   -0.06320645    0.00000000   3      12  Si
    2.40968441    1.06684500    0.00000000   1      13  H
    2.27386672   -1.57492915    0.00000000   2      14  N
    1.09873163   -2.83375100    0.00000000   3      15  Si
    0.59758242    7.20937325    0.00000000   1      16  H
   -0.20594101    6.53823254    0.00000000   2      17  N
   -1.84498478    7.25857131    0.00000000   3      18  Si
   -1.71286651    8.74551428    0.00000000   1      19  H
   -3.56250366    5.94497859    0.00000000   3      20  Si
   -5.88846916    5.96354846    0.00000000   3      21  Si
   -6.35530093    6.75136388   -1.20183078   1      22  H
   -6.09570956    4.45036591   -0.08618332   1      23  H
   -6.44729271    6.58719586    1.28814761   1      24  H
   -2.69328938    3.87193209    0.00000000   3      25  Si
   -3.66477176    2.61940744    0.00000000   4      26  O
   -0.91685760    3.71793697    0.00000000   2      27  N
   -0.56252603    2.71404584    0.00000000   1      28  H
    0.40268867    4.87058027    0.00000000   3      29  Si
    1.93578488    4.53210341    0.00000000   4      30  O
%endblock AtomicCoordinatesAndAtomicSpecies
# Unit Cell
LatticeConstant 1.0 Ang
%block LatticeVectors
    16.855075   0.000000    0.000000
    0.000000    24.528070   0.000000
    0.000000    0.000000    10.315061
%endblock LatticeVectors
%include ../../../Defaults.fdf
************************** End of input data file *****************************

reinit: -----------------------------------------------------------------------
reinit: System Name:
reinit: -----------------------------------------------------------------------
reinit: System Label: AT
reinit: -----------------------------------------------------------------------

NOTE on units for spin output:
{S} is the spin magnetic moment, in units of the Bohr magneton,
assuming a g-factor for the electron spin of exactly 2.
The spin magnetic moment is then numerically equal to the charge inbalance,
in units of electrons, between the spin-up and -down channels.

initatom: Reading input for the pseudopotentials and atomic orbitals ----------
Species number:   1 Atomic number:    1 Label: H
Species number:   2 Atomic number:    7 Label: N
Species number:   3 Atomic number:   14 Label: Si
Species number:   4 Atomic number:    8 Label: O

Ground state valence configuration (from tables):   1s01  2p00  3d00  4f00
Ground state valence configuration (from tables):   2s02  2p03  3d00  4f00
Ground state valence configuration (from tables):   3s02  3p02  3d00  4f00
Ground state valence configuration (from tables):   2s02  2p04  3d00  4f00

---- Processing specs for species: H
Reading pseudopotential information in formatted form from:
  ../../../Pseudos/VW/H/H.psf

[...]

---- Processing specs for species: O
Reading pseudopotential information in formatted form from:
  ../../../Pseudos/VW/O/O.psf

---- Pseudopotential check for H

Pseudopotential generated from a fully relativistic atomic calculation
There are spin-orbit semi-local pseudopotentials available

Pseudized shells:
1s( 1.00) rc: 0.04
Valence configuration for ps generation: (assumed as above)

[...]

Pseudized shells:
2s( 2.00) rc: 1.00
2p( 3.00) rc: 1.04
3d( 0.00) rc: 2.87
Valence configuration for ps generation: (assumed as above)

[...]

Pseudized shells:
3s( 2.00) rc: 1.67
3p( 2.00) rc: 1.99
3d( 0.00) rc: 2.04
Valence configuration for ps generation: (assumed as above)

---- Pseudopotential check for O

Pseudopotential generated from a fully relativistic atomic calculation
There are spin-orbit semi-local pseudopotentials available

Pseudized shells:
2s( 2.00) rc: 0.89
2p( 4.00) rc: 1.03
3d( 0.00) rc: 1.64
Valence configuration for ps generation: (assumed as above)
For H, standard SIESTA heuristics set lmxkb to 2
 (one more than the basis l, including polarization orbitals).
Use PS.lmax or PS.KBprojectors blocks to override.
For N, standard SIESTA heuristics set lmxkb to 3
 (one more than the basis l, including polarization orbitals).
Use PS.lmax or PS.KBprojectors blocks to override.
For Si, standard SIESTA heuristics set lmxkb to 3
 (one more than the basis l, including polarization orbitals).
Use PS.lmax or PS.KBprojectors blocks to override.
For O, standard SIESTA heuristics set lmxkb to 3
 (one more than the basis l, including polarization orbitals).
Use PS.lmax or PS.KBprojectors blocks to override.
../../../Pseudos/VW/H/H.psf pseudopotential only contains V_ls up to l=0 -- lmxkb reset.
../../../Pseudos/VW/N/N.psf pseudopotential only contains V_ls up to l=2 -- lmxkb reset.
../../../Pseudos/VW/Si/Si.psf pseudopotential only contains V_ls up to l=2 -- lmxkb reset.
../../../Pseudos/VW/O/O.psf pseudopotential only contains V_ls up to l=2 -- lmxkb reset.

<basis_specs>
H                    Z=   1    Mass=  1.0080        Charge= 0.17977+309
Lmxo=1 Lmxkb= 0    BasisType=split      Semic=F
L=0  Nsemic=0  Cnfigmx=1
          i=1  nzeta=2  polorb=1  (1s)  (to be polarized perturbatively)
            splnorm:   0.62000
               vcte:    40.000
               rinn:  -0.90000
               qcoe:    0.0000
               qyuk:    0.0000
               qwid:   0.10000E-01
                rcs:    0.0000      0.0000
            lambdas:    1.0000      1.0000
L=1  Nsemic=0  Cnfigmx=2
          i=1  nzeta=0  polorb=0  (2p)  (perturbative polarization orbital) (from 1s)
</basis_specs>

Filter: Requested cutoff:  290.000000 Ry
Using PAO.SplitTailNorm
atom: Called for H                     (Z =   1)
NOTE: H pseudopotential has channels up to l= 0
NOTE: PAOs with higher l will be generated with V_local
Maximum radius (at nrval) set to   50.00000 8518

read_vps: Pseudopotential generation method:
read_vps: ATM4.2.7  Troullier-Martins
Valence charge in pseudo generation:    1.00000

xc_check: Exchange-correlation functional:
xc_check: VDW Dion-Rydberg-Schroeder-Langreth-Lundqvist
V l=0 = -2*Zval/r beyond r=  0.0399
All V_l potentials equal beyond r=  0.0399
This should be close to max(r_c) in ps generation
All pots = -2*Zval/r beyond r=  0.0399
Using small-core scheme (local charge) for Vlocal

VLOCAL_FROM_CHLOCAL: 99.0% of the norm of Vloc inside  27227.515 Ry
VLOCAL_FROM_CHLOCAL: 99.9% of the norm of Vloc inside  62052.012 Ry
atom: Maximum radius for chlocal:    0.04942
atom: Maximum radius for r*vlocal+2*Zval:    0.04228

KBgen: Kleinman-Bylander projectors:
GHOST: No ghost state for L =  0
KBproj: WARNING: Rc(0)=      0.3608
KBproj: WARNING: Cut off radius for the KB projector too small
   l= 0   rc=  0.360771   el= -0.503243   Ekb=-43.540856   kbcos= -0.003669

KBgen: Total number of Kleinman-Bylander projectors:   1
atom: -------------------------------------------------------------------------

atom: SANKEY-TYPE ORBITALS:
atom: Selected multiple-zeta basis: split

SPLIT: Orbitals with angular momentum L= 0

SPLIT: Basis orbitals for state 1s

SPLIT: PAO cut-off radius determined from an
SPLIT: energy shift=  0.005000 Ry
Split based on tail norm

   izeta = 1
                 lambda =    1.000000
                     rc =    5.772464
                 energy =   -0.497573
                kinetic =    0.983085
    potential(screened) =   -1.480658
       potential(ionic) =   -1.978266
PAO Filter: Cutoff used:  142.10 Ry
PAO Filter: diagnostic kin energy tol:    0.003000 Ry
PAO Filter: Nominal cutoff (before filtering):  117.93 Ry
Filter:    Number of eigenfunctions  of the
           filtering kernel (total, used)= 55 20

   izeta = 2
                 rmatch =    1.631860
              splitnorm =    0.620000
                 energy =    1.774382
                kinetic =    6.071357
    potential(screened) =   -4.296974
       potential(ionic) =   -4.727849
PAO Filter: Cutoff used:  142.10 Ry
PAO Filter: diagnostic kin energy tol:    0.003000 Ry
PAO Filter: Nominal cutoff (before filtering):  901.83 Ry
Filter:    Number of eigenfunctions  of the
           filtering kernel (total, used)= 23  5
*Note: V_local used for l= 1

** Using vlocal for PAOs with L= 1

POLgen: Perturbative polarization orbital with L=  1

POLgen: Polarization orbital for state 1s
*Note: V_local used for lpol= 1

** Using vlocal for PAOs with L= 1
Split based on tail norm

   izeta = 1
                     rc =    5.772464
                 energy =    0.609532
                kinetic =    1.250628
    potential(screened) =   -0.641096
       potential(ionic) =   -1.109550
PAO Filter: diagnostic kin energy tol:    0.003000 Ry
PAO Filter: Nominal cutoff (before filtering):   54.19 Ry
Filter:    Number of eigenfunctions  of the
           filtering kernel (total, used)= 55 20
atom: Total number of Sankey-type orbitals:  5

atm_pop: Valence configuration (for local Pseudopot. screening):
 1s( 1.00)
 2p( 0.00)
Vna: chval, zval:    1.00000   1.00000

Vna:  Cut-off radius for the neutral-atom potential:   5.772464
VNA Filter: diagnostic kinetic energy tol:    0.003000 Ry
VNA Filter: Nominal cutoff (before filtering):31865.46 Ry
VNA Filter: Cutoff used:   290.00 Ry
Filter:    Number of eigenfunctions  of the
           filtering kernel (total, used)= 74 30

atom: _________________________________________________________________________

<basis_specs>
N                    Z=   7    Mass=  14.007        Charge= 0.17977+309
Lmxo=2 Lmxkb= 2    BasisType=split      Semic=F
L=0  Nsemic=0  Cnfigmx=2
          i=1  nzeta=2  polorb=0  (2s)
            splnorm:   0.28000
               vcte:    40.000
               rinn:  -0.90000
               qcoe:    0.0000
[...]
     spin moment: {S} , |S| = {   -0.00000   -0.00000   -0.00000 }     0.00000
   scf:    6   -10593.175240   -10593.175240   -10593.175240  0.000000 -3.869613  0.000002
     spin moment: {S} , |S| = {   -0.00000   -0.00000   -0.00000 }     0.00000
   scf:    7   -10593.175240   -10593.175240   -10593.175240  0.000000 -3.869612  0.000001
     spin moment: {S} , |S| = {   -0.00000   -0.00000   -0.00000 }     0.00000

[...]

        iscf     Eharris(eV)        E_KS(eV)     FreeEng(eV)     dDmax    Ef(eV) dHmax(eV)
   scf:    1   -10593.175281   -10593.175235   -10593.175235  0.000016 -3.869260  0.000473
     spin moment: {S} , |S| = {   -0.00000   -0.00000   -0.00000 }     0.00000
   scf:    2   -10593.175235   -10593.175235   -10593.175235  0.000018 -3.869416  0.001353
     spin moment: {S} , |S| = {   -0.00000   -0.00000   -0.00000 }     0.00000
   scf:    3   -10593.175235   -10593.175235   -10593.175235  0.000013 -3.869306  0.000064
     spin moment: {S} , |S| = {   -0.00000   -0.00000   -0.00000 }     0.00000
   scf:    4   -10593.175235   -10593.175235   -10593.175235  0.000001 -3.869318  0.000021
     spin moment: {S} , |S| = {   -0.00000   -0.00000   -0.00000 }     0.00000
   scf:    5   -10593.175235   -10593.175235   -10593.175235  0.000000 -3.869321  0.000007
     spin moment: {S} , |S| = {   -0.00000   -0.00000   -0.00000 }     0.00000
   scf:    6   -10593.175235   -10593.175235   -10593.175235  0.000000 -3.869323  0.000003
     spin moment: {S} , |S| = {   -0.00000   -0.00000   -0.00000 }     0.00000
   scf:    7   -10593.175235   -10593.175235   -10593.175235  0.000000 -3.869324  0.000001
     spin moment: {S} , |S| = {   -0.00000   -0.00000   -0.00000 }     0.00000
   scf:    8   -10593.175235   -10593.175235   -10593.175235  0.000000 -3.869324  0.000000
     spin moment: {S} , |S| = {   -0.00000   -0.00000   -0.00000 }     0.00000

[...]

        iscf     Eharris(eV)        E_KS(eV)     FreeEng(eV)     dDmax    Ef(eV) dHmax(eV)
   scf:    1   -10593.175933   -10593.175325   -10593.175325  0.000096 -3.869522  0.001762
     spin moment: {S} , |S| = {   -0.00000   -0.00000   -0.00000 }     0.00000
   scf:    2   -10593.175317   -10593.175323   -10593.175323  0.000090 -3.869082  0.006997
     spin moment: {S} , |S| = {   -0.00000   -0.00000   -0.00000 }     0.00000
   scf:    3   -10593.175326   -10593.175325   -10593.175325  0.000070 -3.869455  0.000251
     spin moment: {S} , |S| = {   -0.00000   -0.00000   -0.00000 }     0.00000
   scf:    4   -10593.175325   -10593.175325   -10593.175325  0.000002 -3.869457  0.000116
     spin moment: {S} , |S| = {   -0.00000   -0.00000   -0.00000 }     0.00000
   scf:    5   -10593.175325   -10593.175325   -10593.175325  0.000001 -3.869459  0.000039
     spin moment: {S} , |S| = {   -0.00000   -0.00000   -0.00000 }     0.00000
   scf:    6   -10593.175325   -10593.175325   -10593.175325  0.000001 -3.869458  0.000010
     spin moment: {S} , |S| = {   -0.00000   -0.00000   -0.00000 }     0.00000
   scf:    7   -10593.175325   -10593.175325   -10593.175325  0.000000 -3.869458  0.000005
     spin moment: {S} , |S| = {   -0.00000   -0.00000   -0.00000 }     0.00000
   scf:    8   -10593.175325   -10593.175325   -10593.175325  0.000000 -3.869458  0.000002
     spin moment: {S} , |S| = {   -0.00000   -0.00000   -0.00000 }     0.00000
   scf:    9   -10593.175325   -10593.175325   -10593.175325  0.000000 -3.869458  0.000001
     spin moment: {S} , |S| = {   -0.00000   -0.00000   -0.00000 }     0.00000

[...]

                        Begin Broyden opt. move =    104

outcoor: Atomic coordinates (Ang):
    2.31532084   -5.12625854    0.00000000   1       1  H
    1.39809562   -4.62946948    0.00000000   2       2  N
   -0.15923379   -5.47494477    0.00000000   3       3  Si
   -0.06473551   -6.94931038    0.00000000   1       4  H
   -1.56740668   -4.58083498    0.00000000   2       5  N
   -1.09026419   -2.87456374    0.00000000   3       6  Si
   -1.56013231   -0.71084742    0.00000000   3       7  Si
   -3.15177956   -0.08646896    0.00000000   2       8  N
   -3.48740046    0.89889043    0.00000000   1       9  H
   -3.96844584   -0.69967248    0.00000000   1      10  H
   -0.21358712    0.35617402    0.00000000   2      11  N
    1.43328744   -0.06551584    0.00000000   3      12  Si
    2.37491444    1.07944412    0.00000000   1      13  H
    2.22791944   -1.56757507    0.00000000   2      14  N
    1.10512731   -2.84195332    0.00000000   3      15  Si
    0.58006878    7.16139051    0.00000000   1      16  H
   -0.23234612    6.50512796    0.00000000   2      17  N
   -1.83774150    7.26022865    0.00000000   3      18  Si
   -1.69866348    8.74418077    0.00000000   1      19  H
   -3.56212793    5.94722175    0.00000000   3      20  Si
   -5.89524902    5.95414653    0.00000000   3      21  Si
   -6.34979775    6.74727701   -1.20183078   1      22  H
   -6.11625111    4.44348777   -0.08618332   1      23  H
   -6.43932587    6.58481185    1.28814761   1      24  H
   -2.71306202    3.85594391    0.00000000   3      25  Si
   -3.69320079    2.63301117    0.00000000   4      26  O
   -0.94788735    3.70360470    0.00000000   2      27  N
   -0.60798327    2.70690446    0.00000000   1      28  H
    0.37218887    4.84631159    0.00000000   3      29  Si
    1.89441427    4.53309670    0.00000000   4      30  O

outcell: Unit cell vectors (Ang):
       16.855075    0.000000    0.000000
        0.000000   24.528070    0.000000
        0.000000    0.000000   10.315061

outcell: Cell vector modules (Ang)   :   16.855075   24.528070   10.315061
outcell: Cell angles (23,13,12) (deg):     90.0000     90.0000     90.0000
outcell: Cell volume (Ang**3)        :   4264.4779
<dSpData1D:S at geom step 104
  <sparsity:sparsity for geom step 104
    nrows_g=302 nrows=18 sparsity=.0320 nnzs=2916, refcount: 8>
  <dData1D:(new from dSpData1D) n=2916, refcount: 1>
refcount: 1>
new_DM -- step:   105
Re-using DM from previous geometries...
Number of DMs in history: 1
 DM extrapolation coefficients:
1   1.00000
New DM after history re-use:
<dSpData2D:SpM extrapolated using coords
  <sparsity:sparsity for geom step 104
    nrows_g=302 nrows=18 sparsity=.0320 nnzs=2916, refcount: 10>
  <dData2D:(temp array for extrapolation) n=2916 m=8, refcount: 1>
refcount: 1>
     spin moment: {S} , |S| = {   -0.00000   -0.00000   -0.00000 }     0.00000

InitMesh: MESH = 180 x 256 x 108 = 4976640
InitMesh: Mesh cutoff (required, used) =   300.000   301.061 Ry
New grid distribution [1]: sub = 2
New grid distribution [2]: sub = 2
New grid distribution [3]: sub = 2
Setting up quadratic distribution...

        iscf     Eharris(eV)        E_KS(eV)     FreeEng(eV)     dDmax    Ef(eV) dHmax(eV)
   scf:    1   -10593.176581   -10593.175412   -10593.175412  0.000139 -3.869543  0.001820
     spin moment: {S} , |S| = {   -0.00000   -0.00000   -0.00000 }     0.00000
   scf:    2   -10593.175400   -10593.175409   -10593.175409  0.000133 -3.870144  0.005622
     spin moment: {S} , |S| = {   -0.00000   -0.00000   -0.00000 }     0.00000
   scf:    3   -10593.175414   -10593.175413   -10593.175413  0.000102 -3.869800  0.000309
     spin moment: {S} , |S| = {   -0.00000   -0.00000   -0.00000 }     0.00000
   scf:    4   -10593.175413   -10593.175413   -10593.175413  0.000004 -3.869859  0.000144
     spin moment: {S} , |S| = {   -0.00000   -0.00000   -0.00000 }     0.00000
   scf:    5   -10593.175413   -10593.175413   -10593.175413  0.000002 -3.869882  0.000036
     spin moment: {S} , |S| = {   -0.00000   -0.00000   -0.00000 }     0.00000
   scf:    6   -10593.175413   -10593.175413   -10593.175413  0.000001 -3.869890  0.000018
     spin moment: {S} , |S| = {   -0.00000   -0.00000   -0.00000 }     0.00000
   scf:    7   -10593.175413   -10593.175413   -10593.175413  0.000000 -3.869891  0.000009
     spin moment: {S} , |S| = {   -0.00000   -0.00000   -0.00000 }     0.00000
   scf:    8   -10593.175413   -10593.175413   -10593.175413  0.000000 -3.869892  0.000003
     spin moment: {S} , |S| = {   -0.00000   -0.00000   -0.00000 }     0.00000
   scf:    9   -10593.175413   -10593.175413   -10593.175413  0.000000 -3.869892  0.000001
     spin moment: {S} , |S| = {   -0.00000   -0.00000   -0.00000 }     0.00000
   scf:   10   -10593.175413   -10593.175413   -10593.175413  0.000000 -3.869892  0.000001
     spin moment: {S} , |S| = {   -0.00000   -0.00000   -0.00000 }     0.00000

SCF Convergence by DM+H criterion
max |DM_out - DM_in|         :     0.0000000246
max |H_out - H_in|      (eV) :     0.0000005110
SCF cycle converged after 10 iterations

Using DM_out to compute the final energy and forces

siesta: E_KS(eV) =           -10593.1754
     spin moment: {S} , |S| = {   -0.00000   -0.00000   -0.00000 }     0.00000

siesta: Atomic forces (eV/Ang):
     1   -0.000382    0.002922   -0.000001
     2    0.001289    0.002722   -0.000003
     3    0.001852    0.000289    0.000005
     4    0.006055    0.003250   -0.000002
     5    0.001614   -0.000531    0.000007
     6   -0.020319   -0.062360   -0.000028
     7   -0.006081   -0.001630   -0.000002
     8   -0.006093   -0.001855    0.000027
     9   -0.000794    0.001460   -0.002517
    10   -0.007650   -0.006845    0.000291
    11   -0.006813    0.002085    0.000021
    12   -0.007957    0.004871    0.000005
    13   -0.003640    0.000570    0.000001
    14   -0.006233    0.005701   -0.000009
    15   -0.000533    0.002721    0.000015
    16   -0.005321   -0.001779   -0.004037
    17    0.000196   -0.002523   -0.004589
    18   -0.000691   -0.001977    0.019128
    19    0.003181   -0.004035   -0.019414
    20   -0.002196    0.000020    0.038210
    21   -0.002088   -0.000485    0.280831
    22   -0.001990   -0.001469   -1.635646
    23   -0.003341    0.002479   -0.235705
    24   -0.001849   -0.001086    1.555091
    25   -0.002250    0.000290    0.013636
    26   -0.000655   -0.000689   -0.001434
    27   -0.004219   -0.001430   -0.003475
    28   -0.004101    0.000340   -0.001000
    29   -0.000377   -0.002804   -0.000015
    30    0.000533   -0.000303    0.000583
   Tot   -0.080853   -0.062083   -0.000024
   Max    1.635646
   Res    0.241188    sqrt( Sum f_i^2 / 3N )
   Max    0.007957    constrained

Stress tensor Voigt[x,y,z,yz,xz,xy] (kbar):        0.02        0.11       -1.50        0.00       -0.00        0.03
(Free)E + p*V (eV/cell)   -10591.9536
Target enthalpy (eV/cell)   -10593.1754

outcoor: Relaxed atomic coordinates (Ang):
    2.31532084   -5.12625854    0.00000000   1       1  H
    1.39809562   -4.62946948    0.00000000   2       2  N
   -0.15923379   -5.47494477    0.00000000   3       3  Si
   -0.06473551   -6.94931038    0.00000000   1       4  H
   -1.56740668   -4.58083498    0.00000000   2       5  N
   -1.09026419   -2.87456374    0.00000000   3       6  Si
   -1.56013231   -0.71084742    0.00000000   3       7  Si
   -3.15177956   -0.08646896    0.00000000   2       8  N
   -3.48740046    0.89889043    0.00000000   1       9  H
   -3.96844584   -0.69967248    0.00000000   1      10  H
   -0.21358712    0.35617402    0.00000000   2      11  N
    1.43328744   -0.06551584    0.00000000   3      12  Si
    2.37491444    1.07944412    0.00000000   1      13  H
    2.22791944   -1.56757507    0.00000000   2      14  N
    1.10512731   -2.84195332    0.00000000   3      15  Si
    0.58006878    7.16139051    0.00000000   1      16  H
   -0.23234612    6.50512796    0.00000000   2      17  N
   -1.83774150    7.26022865    0.00000000   3      18  Si
   -1.69866348    8.74418077    0.00000000   1      19  H
   -3.56212793    5.94722175    0.00000000   3      20  Si
   -5.89524902    5.95414653    0.00000000   3      21  Si
   -6.34979775    6.74727701   -1.20183078   1      22  H
   -6.11625111    4.44348777   -0.08618332   1      23  H
   -6.43932587    6.58481185    1.28814761   1      24  H
   -2.71306202    3.85594391    0.00000000   3      25  Si
   -3.69320079    2.63301117    0.00000000   4      26  O
   -0.94788735    3.70360470    0.00000000   2      27  N
   -0.60798327    2.70690446    0.00000000   1      28  H
    0.37218887    4.84631159    0.00000000   3      29  Si
    1.89441427    4.53309670    0.00000000   4      30  O

siesta: Program's energy decomposition (eV):
siesta: Ebs     =     -1124.667491
siesta: Eions   =     11034.916955
siesta: Ena     =      1992.623619
siesta: Ekin    =      2651.630673
siesta: Enl(+so)=     -1615.358504
siesta: Eso(nil)=         0.000000
siesta: Edftu   =         0.000000
siesta: DEna    =         4.770093
siesta: DUscf   =        12.419212
siesta: DUext   =         0.000000
siesta: Ex      =     -2389.020358
siesta: Ec      =      -215.323194
siesta: Exc     =     -2604.343551
siesta: EbV     =         0.000000
siesta: eta*DQ  =         0.000000
siesta: Emadel  =         0.000000
siesta: Emeta   =         0.000000
siesta: Emolmec =         0.000000
siesta: Ekinion =         0.000000
siesta: Eharris =    -10593.175413
siesta: Etot    =    -10593.175413
siesta: FreeEng =    -10593.175413

siesta: Final energy (eV):
siesta:  Band Struct. =   -1124.667491
siesta:       Kinetic =    2651.630673
siesta:       Hartree =    8028.030009
siesta:         Edftu =       0.000000
siesta:      Eso(nil) =       0.000000
siesta:    Ext. field =       0.000000
siesta:         Exch. =   -2389.020358
siesta:         Corr. =    -215.323194
siesta:     Bulk bias =       0.000000
siesta:   Exch.-corr. =   -2604.343551
siesta:  Ion-electron =  -18360.079236
siesta:       Ion-ion =    -308.413308
siesta:       Ekinion =       0.000000
siesta: D3 dispersion =       0.000000
siesta:         Total =  -10593.175413
siesta:         Fermi =      -3.869892

siesta: Atomic forces (eV/Ang):
siesta:      1   -0.000382    0.002922   -0.000001
siesta:      2    0.001289    0.002722   -0.000003
siesta:      3    0.001852    0.000289    0.000005
siesta:      4    0.006055    0.003250   -0.000002
siesta:      5    0.001614   -0.000531    0.000007
siesta:      6   -0.020319   -0.062360   -0.000028
siesta:      7   -0.006081   -0.001630   -0.000002
siesta:      8   -0.006093   -0.001855    0.000027
siesta:      9   -0.000794    0.001460   -0.002517
siesta:     10   -0.007650   -0.006845    0.000291
siesta:     11   -0.006813    0.002085    0.000021
siesta:     12   -0.007957    0.004871    0.000005
siesta:     13   -0.003640    0.000570    0.000001
siesta:     14   -0.006233    0.005701   -0.000009
siesta:     15   -0.000533    0.002721    0.000015
siesta:     16   -0.005321   -0.001779   -0.004037
siesta:     17    0.000196   -0.002523   -0.004589
siesta:     18   -0.000691   -0.001977    0.019128
siesta:     19    0.003181   -0.004035   -0.019414
siesta:     20   -0.002196    0.000020    0.038210
siesta:     21   -0.002088   -0.000485    0.280831
siesta:     22   -0.001990   -0.001469   -1.635646
siesta:     23   -0.003341    0.002479   -0.235705
siesta:     24   -0.001849   -0.001086    1.555091
siesta:     25   -0.002250    0.000290    0.013636
siesta:     26   -0.000655   -0.000689   -0.001434
siesta:     27   -0.004219   -0.001430   -0.003475
siesta:     28   -0.004101    0.000340   -0.001000
siesta:     29   -0.000377   -0.002804   -0.000015
siesta:     30    0.000533   -0.000303    0.000583
siesta: ----------------------------------------
siesta:    Tot   -0.080853   -0.062083   -0.000024

siesta: Stress tensor (static) (eV/Ang**3):
siesta:     0.000010    0.000021   -0.000000
siesta:     0.000021    0.000067    0.000000
siesta:    -0.000000    0.000000   -0.000937

siesta: Cell volume =       4264.477888 Ang**3

siesta: Pressure (static):
siesta:                Solid            Molecule  Units
siesta:           0.00000312         -0.00000038  Ry/Bohr**3
siesta:           0.00028652         -0.00003502  eV/Ang**3
siesta:           0.45904781         -0.05610205  kBar
(Free)E+ p_basis*V_orbitals  =      -10577.824714
(Free)Eharris+ p_basis*V_orbitals  =      -10577.824714
     spin moment: {S} , |S| = {   -0.00000   -0.00000   -0.00000 }     0.00000

siesta: Electric dipole (a.u.)  =   -1.164210    1.970523   -0.005466
siesta: Electric dipole (Debye) =   -2.959127    5.008570   -0.013894

cite: Please see "AT.bib" for an exhaustive BiBTeX file.
cite: Please clearly indicate Siesta version in published work: 5.1-MaX-41-g6ad11e234
cite: This calculation has made use of the following articles
cite: which are encouraged to be cited in a published work.
        Primary SIESTA paper
          DOI: www.doi.org/10.1088/0953-8984/14/11/302
        Spin-orbit coupling (off-site approximation)
          DOI: www.doi.org/10.1088/0953-8984/24/8/086005
        ELPA library
          DOI: www.doi.org/10.1088/0953-8984/26/21/213201

>> End of run:  12-OCT-2024  18:50:27
Job completed