 NOTE: Siesta V5 introduces some new defaults for basis-set generation
 NOTE: which might lead to slightly different numerical results.
 NOTE: Please see the manual for full details and compatibility measures.

reinit: Reading from standard input
reinit: Dumping input in INPUT_TMP.93914
************************** Dump of input data file ****************************
# mpirun -np 4 siesta-5 < Adenine.fdf > Adenine.out
SystemLabel      Adenine
NumberOfAtoms    15
NumberOfSpecies  3
%block ChemicalSpeciesLabel
    1    1  H  ../../../Pseudos/PBE/H/H.psf
    2    7  N  ../../../Pseudos/PBE/N/N.psf
    3   14  Si ../../../Pseudos/PBE/Si/Si.psf
%endblock ChemicalSpeciesLabel
# This overrides Defaults.fdf configuration
MD.Steps                    1000
%block Geometry.Constraints
    atom all 0.0 0.0 1.0 # constrain along z Cartesian vector
    atom [6]
%endblock
AtomicCoordinatesFormat NotScaledCartesianAng
%block AtomicCoordinatesAndAtomicSpecies
    2.21762232   -5.11279452    0.00000000   1       1  H
    1.29501137   -4.59896583    0.00000000   2       2  N
   -0.29904047   -5.42682372    0.00000000   3       3  Si
   -0.24674975   -6.93013012    0.00000000   1       4  H
   -1.72423401   -4.48368219    0.00000000   2       5  N
   -1.16006198   -2.76542566    0.00000000   3       6  Si
   -1.47852890   -0.56637991    0.00000000   3       7  Si
   -3.00339962    0.30830853    0.00000000   2       8  N
   -3.03826294    1.36179510    0.00000000   1       9  H
   -3.94024356   -0.17255215    0.00000000   1      10  H
   -0.07927414    0.45677789    0.00000000   2      11  N
    1.57094203   -0.02429720    0.00000000   3      12  Si
    2.54369079    1.12474014    0.00000000   1      13  H
    2.32454704   -1.59358938    0.00000000   2      14  N
    1.05498597   -2.78042589    0.00000000   3      15  Si
%endblock AtomicCoordinatesAndAtomicSpecies
%include ../../../Defaults.fdf
************************** End of input data file *****************************

reinit: -----------------------------------------------------------------------
reinit: System Name:
reinit: -----------------------------------------------------------------------
reinit: System Label: Adenine
reinit: -----------------------------------------------------------------------

NOTE on units for spin output:
{S} is the spin magnetic moment, in units of the Bohr magneton,
assuming a g-factor for the electron spin of exactly 2.
The spin magnetic moment is then numerically equal to the charge inbalance,
in units of electrons, between the spin-up and -down channels.

initatom: Reading input for the pseudopotentials and atomic orbitals ----------
Species number:   1 Atomic number:    1 Label: H
Species number:   2 Atomic number:    7 Label: N
Species number:   3 Atomic number:   14 Label: Si

Ground state valence configuration (from tables):   1s01  2p00  3d00  4f00
Ground state valence configuration (from tables):   2s02  2p03  3d00  4f00
Ground state valence configuration (from tables):   3s02  3p02  3d00  4f00

---- Processing specs for species: H
Reading pseudopotential information in formatted form from:
  ../../../Pseudos/PBE/H/H.psf

[...]

---- Processing specs for species: Si
Reading pseudopotential information in formatted form from:
  ../../../Pseudos/PBE/Si/Si.psf

---- Pseudopotential check for H

Pseudopotential generated from a fully relativistic atomic calculation
There are spin-orbit semi-local pseudopotentials available

Pseudized shells:
1s( 1.00) rc: 0.05
Valence configuration for ps generation: (assumed as above)

[...]

Pseudized shells:
2s( 2.00) rc: 1.02
2p( 3.00) rc: 1.36
3d( 0.00) rc: 3.29
Valence configuration for ps generation: (assumed as above)

---- Pseudopotential check for Si

Pseudopotential generated from a fully relativistic atomic calculation
There are spin-orbit semi-local pseudopotentials available

Pseudized shells:
3s( 2.00) rc: 1.67
3p( 2.00) rc: 2.22
3d( 0.00) rc: 3.44
Valence configuration for ps generation: (assumed as above)
For H, standard SIESTA heuristics set lmxkb to 2
 (one more than the basis l, including polarization orbitals).
Use PS.lmax or PS.KBprojectors blocks to override.
For N, standard SIESTA heuristics set lmxkb to 3
 (one more than the basis l, including polarization orbitals).
Use PS.lmax or PS.KBprojectors blocks to override.
For Si, standard SIESTA heuristics set lmxkb to 3
 (one more than the basis l, including polarization orbitals).
Use PS.lmax or PS.KBprojectors blocks to override.
../../../Pseudos/PBE/H/H.psf pseudopotential only contains V_ls up to l=0 -- lmxkb reset.
../../../Pseudos/PBE/N/N.psf pseudopotential only contains V_ls up to l=2 -- lmxkb reset.
../../../Pseudos/PBE/Si/Si.psf pseudopotential only contains V_ls up to l=2 -- lmxkb reset.

<basis_specs>
H                    Z=   1    Mass=  1.0080        Charge= 0.17977+309
Lmxo=1 Lmxkb= 0    BasisType=split      Semic=F
L=0  Nsemic=0  Cnfigmx=1
          i=1  nzeta=2  polorb=1  (1s)  (to be polarized perturbatively)
            splnorm:   0.62000
               vcte:    40.000
               rinn:  -0.90000
               qcoe:    0.0000
               qyuk:    0.0000
               qwid:   0.10000E-01
                rcs:    0.0000      0.0000
            lambdas:    1.0000      1.0000
L=1  Nsemic=0  Cnfigmx=2
          i=1  nzeta=0  polorb=0  (2p)  (perturbative polarization orbital) (from 1s)
</basis_specs>

Filter: Requested cutoff:  290.000000 Ry
Using PAO.SplitTailNorm
atom: Called for H                     (Z =   1)
NOTE: H pseudopotential has channels up to l= 0
NOTE: PAOs with higher l will be generated with V_local
Maximum radius (at nrval) set to   50.00000 8518

read_vps: Pseudopotential generation method:
read_vps: ATM4.2.7  Troullier-Martins
Valence charge in pseudo generation:    1.00000

xc_check: Exchange-correlation functional:
xc_check: GGA Perdew, Burke & Ernzerhof 1996
V l=0 = -2*Zval/r beyond r=  0.0513
All V_l potentials equal beyond r=  0.0513
This should be close to max(r_c) in ps generation
All pots = -2*Zval/r beyond r=  0.0513
Using small-core scheme (local charge) for Vlocal

VLOCAL_FROM_CHLOCAL: 99.0% of the norm of Vloc inside  16462.511 Ry
VLOCAL_FROM_CHLOCAL: 99.9% of the norm of Vloc inside  37518.368 Ry
atom: Maximum radius for chlocal:    0.06330
atom: Maximum radius for r*vlocal+2*Zval:    0.05437

KBgen: Kleinman-Bylander projectors:
GHOST: No ghost state for L =  0
KBproj: WARNING: Rc(0)=      0.3107
KBproj: WARNING: Cut off radius for the KB projector too small
   l= 0   rc=  0.310725   el= -0.477181   Ekb=-33.944693   kbcos= -0.005118

KBgen: Total number of Kleinman-Bylander projectors:   1
atom: -------------------------------------------------------------------------

atom: SANKEY-TYPE ORBITALS:
atom: Selected multiple-zeta basis: split

SPLIT: Orbitals with angular momentum L= 0

SPLIT: Basis orbitals for state 1s

SPLIT: PAO cut-off radius determined from an
SPLIT: energy shift=  0.005000 Ry
Split based on tail norm

   izeta = 1
                 lambda =    1.000000
                     rc =    5.772464
                 energy =   -0.471502
                kinetic =    0.941609
    potential(screened) =   -1.413111
       potential(ionic) =   -1.936120
PAO Filter: Cutoff used:  142.10 Ry
PAO Filter: diagnostic kin energy tol:    0.003000 Ry
PAO Filter: Nominal cutoff (before filtering):  107.24 Ry
Filter:    Number of eigenfunctions  of the
           filtering kernel (total, used)= 55 20

   izeta = 2
                 rmatch =    1.661681
              splitnorm =    0.620000
                 energy =    1.741023
                kinetic =    5.838304
    potential(screened) =   -4.097281
       potential(ionic) =   -4.634491
PAO Filter: Cutoff used:  142.10 Ry
PAO Filter: diagnostic kin energy tol:    0.003000 Ry
PAO Filter: Nominal cutoff (before filtering):  829.47 Ry
Filter:    Number of eigenfunctions  of the
           filtering kernel (total, used)= 23  5
*Note: V_local used for l= 1

** Using vlocal for PAOs with L= 1

POLgen: Perturbative polarization orbital with L=  1

POLgen: Polarization orbital for state 1s
*Note: V_local used for lpol= 1

** Using vlocal for PAOs with L= 1
Split based on tail norm

   izeta = 1
                     rc =    5.772464
                 energy =    0.606793
                kinetic =    1.227790
    potential(screened) =   -0.620997
       potential(ionic) =   -1.099517
PAO Filter: diagnostic kin energy tol:    0.003000 Ry
PAO Filter: Nominal cutoff (before filtering):   49.50 Ry
Filter:    Number of eigenfunctions  of the
           filtering kernel (total, used)= 55 20
atom: Total number of Sankey-type orbitals:  5

atm_pop: Valence configuration (for local Pseudopot. screening):
 1s( 1.00)
 2p( 0.00)
Vna: chval, zval:    1.00000   1.00000

Vna:  Cut-off radius for the neutral-atom potential:   5.772464
VNA Filter: diagnostic kinetic energy tol:    0.003000 Ry
VNA Filter: Nominal cutoff (before filtering):21300.87 Ry
VNA Filter: Cutoff used:   290.00 Ry
Filter:    Number of eigenfunctions  of the
           filtering kernel (total, used)= 74 30

atom: _________________________________________________________________________

<basis_specs>
N                    Z=   7    Mass=  14.007        Charge= 0.17977+309
Lmxo=2 Lmxkb= 2    BasisType=split      Semic=F
L=0  Nsemic=0  Cnfigmx=2
          i=1  nzeta=2  polorb=0  (2s)
            splnorm:   0.28000
               vcte:    40.000
               rinn:  -0.90000
               qcoe:    0.0000
               qyuk:    0.0000
               qwid:   0.10000E-01
                rcs:    0.0000      0.0000
            lambdas:    1.0000      1.0000
L=1  Nsemic=0  Cnfigmx=2
          i=1  nzeta=2  polorb=1  (2p)  (to be polarized perturbatively)
            splnorm:   0.28000
               vcte:    40.000
               rinn:  -0.90000
               qcoe:    0.0000
               qyuk:    0.0000
               qwid:   0.10000E-01
                rcs:    0.0000      0.0000
            lambdas:    1.0000      1.0000
L=2  Nsemic=0  Cnfigmx=3
          i=1  nzeta=0  polorb=0  (3d)  (perturbative polarization orbital) (from 2p)
L=0  Nkbl=1  erefs: 0.17977+309
L=1  Nkbl=1  erefs: 0.17977+309
L=2  Nkbl=1  erefs: 0.17977+309
</basis_specs>

Filter: Requested cutoff:  290.000000 Ry
Using PAO.SplitTailNorm
atom: Called for N                     (Z =   7)
Maximum radius (at nrval) set to   50.00000 8518

[...]

KBgen: Kleinman-Bylander projectors:
GHOST: No ghost state for L =  0
   l= 0   rc=  3.286396   el= -1.364990   Ekb= -4.084395   kbcos= -0.707149
GHOST: No ghost state for L =  1
j- l= 1   rc=  3.273237   el= -0.522099   Ekb= -9.337483   kbcos= -0.603568
GHOST: No ghost state for L =  1
j+ l= 1   rc=  3.273237   el= -0.520710   Ekb= -9.322891   kbcos= -0.603256
GHOST: No ghost state for L =  2
j- l= 2   rc=  3.699250   el=  0.012944   Ekb= -0.680922   kbcos= -0.059812
GHOST: No ghost state for L =  2
j+ l= 2   rc=  3.699250   el=  0.012944   Ekb= -0.679799   kbcos= -0.059842

[...]

   izeta = 2
                 rmatch =    2.177654
              splitnorm =    0.280000
                 energy =   -0.492898
                kinetic =    3.145026
[...]
     spin moment: {S} , |S| = {    0.00000    0.00000    0.00000 }     0.00000
   scf:    3    -4318.489042    -4318.489028    -4318.489028  0.000292 -3.640906  0.001512
     spin moment: {S} , |S| = {    0.00000    0.00000    0.00000 }     0.00000
   scf:    4    -4318.489028    -4318.489028    -4318.489028  0.000012 -3.640696  0.000588
     spin moment: {S} , |S| = {    0.00000    0.00000    0.00000 }     0.00000
   scf:    5    -4318.489028    -4318.489028    -4318.489028  0.000009 -3.640599  0.000130
     spin moment: {S} , |S| = {    0.00000    0.00000    0.00000 }     0.00000
   scf:    6    -4318.489028    -4318.489028    -4318.489028  0.000002 -3.640577  0.000043
     spin moment: {S} , |S| = {    0.00000    0.00000    0.00000 }     0.00000
   scf:    7    -4318.489028    -4318.489028    -4318.489028  0.000001 -3.640572  0.000019
     spin moment: {S} , |S| = {    0.00000    0.00000    0.00000 }     0.00000
   scf:    8    -4318.489028    -4318.489028    -4318.489028  0.000001 -3.640569  0.000007
     spin moment: {S} , |S| = {    0.00000    0.00000    0.00000 }     0.00000
   scf:    9    -4318.489028    -4318.489028    -4318.489028  0.000000 -3.640568  0.000004
     spin moment: {S} , |S| = {    0.00000    0.00000    0.00000 }     0.00000
   scf:   10    -4318.489028    -4318.489028    -4318.489028  0.000000 -3.640567  0.000001
     spin moment: {S} , |S| = {    0.00000    0.00000    0.00000 }     0.00000
   scf:   11    -4318.489028    -4318.489028    -4318.489028  0.000000 -3.640567  0.000000
     spin moment: {S} , |S| = {    0.00000    0.00000    0.00000 }     0.00000

[...]

        iscf     Eharris(eV)        E_KS(eV)     FreeEng(eV)     dDmax    Ef(eV) dHmax(eV)
   scf:    1    -4318.490651    -4318.489296    -4318.489296  0.000432 -3.653778  0.015405
     spin moment: {S} , |S| = {    0.00000    0.00000    0.00000 }     0.00000
   scf:    2    -4318.488832    -4318.489164    -4318.489164  0.000773 -3.653440  0.051411
     spin moment: {S} , |S| = {    0.00000    0.00000    0.00000 }     0.00000
   scf:    3    -4318.489346    -4318.489314    -4318.489314  0.000650 -3.654286  0.001642
     spin moment: {S} , |S| = {    0.00000    0.00000    0.00000 }     0.00000
   scf:    4    -4318.489315    -4318.489315    -4318.489315  0.000012 -3.654295  0.000610
     spin moment: {S} , |S| = {    0.00000    0.00000    0.00000 }     0.00000
   scf:    5    -4318.489315    -4318.489315    -4318.489315  0.000008 -3.654262  0.000183
     spin moment: {S} , |S| = {    0.00000    0.00000    0.00000 }     0.00000
   scf:    6    -4318.489315    -4318.489315    -4318.489315  0.000003 -3.654256  0.000039
     spin moment: {S} , |S| = {    0.00000    0.00000    0.00000 }     0.00000
   scf:    7    -4318.489315    -4318.489315    -4318.489315  0.000001 -3.654255  0.000020
     spin moment: {S} , |S| = {    0.00000    0.00000    0.00000 }     0.00000
   scf:    8    -4318.489315    -4318.489315    -4318.489315  0.000001 -3.654253  0.000011
     spin moment: {S} , |S| = {    0.00000    0.00000    0.00000 }     0.00000
   scf:    9    -4318.489315    -4318.489315    -4318.489315  0.000000 -3.654252  0.000003
     spin moment: {S} , |S| = {    0.00000    0.00000    0.00000 }     0.00000
   scf:   10    -4318.489315    -4318.489315    -4318.489315  0.000000 -3.654251  0.000001
     spin moment: {S} , |S| = {    0.00000    0.00000    0.00000 }     0.00000

[...]

        iscf     Eharris(eV)        E_KS(eV)     FreeEng(eV)     dDmax    Ef(eV) dHmax(eV)
   scf:    1    -4318.489512    -4318.490105    -4318.490105  0.000213 -3.665001  0.005870
     spin moment: {S} , |S| = {    0.00000    0.00000    0.00000 }     0.00000
   scf:    2    -4318.490018    -4318.490080    -4318.490080  0.000314 -3.660667  0.018162
     spin moment: {S} , |S| = {    0.00000    0.00000    0.00000 }     0.00000
   scf:    3    -4318.490115    -4318.490108    -4318.490108  0.000242 -3.663952  0.001277
     spin moment: {S} , |S| = {    0.00000    0.00000    0.00000 }     0.00000
   scf:    4    -4318.490108    -4318.490108    -4318.490108  0.000004 -3.663902  0.000716
     spin moment: {S} , |S| = {    0.00000    0.00000    0.00000 }     0.00000
   scf:    5    -4318.490108    -4318.490108    -4318.490108  0.000004 -3.663887  0.000159
     spin moment: {S} , |S| = {    0.00000    0.00000    0.00000 }     0.00000
   scf:    6    -4318.490108    -4318.490108    -4318.490108  0.000001 -3.663877  0.000031
     spin moment: {S} , |S| = {    0.00000    0.00000    0.00000 }     0.00000
   scf:    7    -4318.490108    -4318.490108    -4318.490108  0.000000 -3.663873  0.000006
     spin moment: {S} , |S| = {    0.00000    0.00000    0.00000 }     0.00000
   scf:    8    -4318.490108    -4318.490108    -4318.490108  0.000000 -3.663871  0.000003
     spin moment: {S} , |S| = {    0.00000    0.00000    0.00000 }     0.00000
   scf:    9    -4318.490108    -4318.490108    -4318.490108  0.000000 -3.663870  0.000001
     spin moment: {S} , |S| = {    0.00000    0.00000    0.00000 }     0.00000

[...]

        iscf     Eharris(eV)        E_KS(eV)     FreeEng(eV)     dDmax    Ef(eV) dHmax(eV)
   scf:    1    -4318.492664    -4318.492513    -4318.492513  0.000130 -3.666139  0.005344
     spin moment: {S} , |S| = {    0.00000    0.00000    0.00000 }     0.00000
   scf:    2    -4318.492429    -4318.492488    -4318.492488  0.000297 -3.661916  0.018383
     spin moment: {S} , |S| = {    0.00000    0.00000    0.00000 }     0.00000
   scf:    3    -4318.492520    -4318.492515    -4318.492515  0.000235 -3.665132  0.000609
     spin moment: {S} , |S| = {    0.00000    0.00000    0.00000 }     0.00000
   scf:    4    -4318.492515    -4318.492515    -4318.492515  0.000004 -3.665074  0.000318
     spin moment: {S} , |S| = {    0.00000    0.00000    0.00000 }     0.00000
   scf:    5    -4318.492515    -4318.492515    -4318.492515  0.000003 -3.665044  0.000074
     spin moment: {S} , |S| = {    0.00000    0.00000    0.00000 }     0.00000
   scf:    6    -4318.492515    -4318.492515    -4318.492515  0.000001 -3.665036  0.000012
     spin moment: {S} , |S| = {    0.00000    0.00000    0.00000 }     0.00000
   scf:    7    -4318.492515    -4318.492515    -4318.492515  0.000000 -3.665036  0.000006
     spin moment: {S} , |S| = {    0.00000    0.00000    0.00000 }     0.00000
   scf:    8    -4318.492515    -4318.492515    -4318.492515  0.000000 -3.665036  0.000003
     spin moment: {S} , |S| = {    0.00000    0.00000    0.00000 }     0.00000
   scf:    9    -4318.492515    -4318.492515    -4318.492515  0.000000 -3.665036  0.000001
     spin moment: {S} , |S| = {    0.00000    0.00000    0.00000 }     0.00000
   scf:   10    -4318.492515    -4318.492515    -4318.492515  0.000000 -3.665037  0.000000
     spin moment: {S} , |S| = {    0.00000    0.00000    0.00000 }     0.00000

[...]

                        Begin Broyden opt. move =     37

outcoor: Atomic coordinates (Ang):
    2.17791394   -5.14500016    0.00000000   1       1  H
    1.27855989   -4.61207848    0.00000000   2       2  N
   -0.31932463   -5.40075897    0.00000000   3       3  Si
   -0.26963524   -6.87694072    0.00000000   1       4  H
   -1.73360909   -4.47523714    0.00000000   2       5  N
   -1.16006198   -2.76542566    0.00000000   3       6  Si
   -1.48201456   -0.58553738    0.00000000   3       7  Si
   -3.00465487    0.27035479    0.00000000   2       8  N
   -3.05354158    1.31396559    0.00000000   1       9  H
   -3.91957809   -0.23295887    0.00000000   1      10  H
   -0.08480167    0.41373221    0.00000000   2      11  N
    1.54233415   -0.07413147    0.00000000   3      12  Si
    2.50225889    1.05075017    0.00000000   1      13  H
    2.29956063   -1.61876891    0.00000000   2      14  N
    1.04347983   -2.79818444    0.00000000   3      15  Si

outcell: Unit cell vectors (Ang):
       13.852571    0.000000    0.000000
        0.000000   15.841361    0.000000
        0.000000    0.000000    8.754136

outcell: Cell vector modules (Ang)   :   13.852571   15.841361    8.754136
outcell: Cell angles (23,13,12) (deg):     90.0000     90.0000     90.0000
outcell: Cell volume (Ang**3)        :   1921.0390
<dSpData1D:S at geom step 37
  <sparsity:sparsity for geom step 37
    nrows_g=155 nrows=20 sparsity=.1229 nnzs=2952, refcount: 8>
  <dData1D:(new from dSpData1D) n=2952, refcount: 1>
refcount: 1>
new_DM -- step:    38
Re-using DM from previous geometries...
Number of DMs in history: 1
 DM extrapolation coefficients:
1   1.00000
New DM after history re-use:
<dSpData2D:SpM extrapolated using coords
  <sparsity:sparsity for geom step 37
    nrows_g=155 nrows=20 sparsity=.1229 nnzs=2952, refcount: 10>
  <dData2D:(temp array for extrapolation) n=2952 m=8, refcount: 1>
refcount: 1>
     spin moment: {S} , |S| = {    0.00000    0.00000    0.00000 }     0.00000

InitMesh: MESH = 150 x 180 x 96 = 2592000
InitMesh: Mesh cutoff (required, used) =   300.000   324.059 Ry
New grid distribution [1]: sub = 2
New grid distribution [2]: sub = 2
New grid distribution [3]: sub = 2
Setting up quadratic distribution...

        iscf     Eharris(eV)        E_KS(eV)     FreeEng(eV)     dDmax    Ef(eV) dHmax(eV)
   scf:    1    -4318.492920    -4318.492541    -4318.492541  0.000113 -3.664132  0.002858
     spin moment: {S} , |S| = {    0.00000    0.00000    0.00000 }     0.00000
   scf:    2    -4318.492509    -4318.492531    -4318.492531  0.000189 -3.662048  0.012000
     spin moment: {S} , |S| = {    0.00000    0.00000    0.00000 }     0.00000
   scf:    3    -4318.492544    -4318.492541    -4318.492541  0.000149 -3.663670  0.000166
     spin moment: {S} , |S| = {    0.00000    0.00000    0.00000 }     0.00000
   scf:    4    -4318.492541    -4318.492541    -4318.492541  0.000002 -3.663658  0.000101
     spin moment: {S} , |S| = {    0.00000    0.00000    0.00000 }     0.00000
   scf:    5    -4318.492541    -4318.492541    -4318.492541  0.000001 -3.663658  0.000032
     spin moment: {S} , |S| = {    0.00000    0.00000    0.00000 }     0.00000
   scf:    6    -4318.492541    -4318.492541    -4318.492541  0.000001 -3.663657  0.000009
     spin moment: {S} , |S| = {    0.00000    0.00000    0.00000 }     0.00000
   scf:    7    -4318.492541    -4318.492541    -4318.492541  0.000000 -3.663657  0.000004
     spin moment: {S} , |S| = {    0.00000    0.00000    0.00000 }     0.00000
   scf:    8    -4318.492541    -4318.492541    -4318.492541  0.000000 -3.663657  0.000002
     spin moment: {S} , |S| = {    0.00000    0.00000    0.00000 }     0.00000
   scf:    9    -4318.492541    -4318.492541    -4318.492541  0.000000 -3.663657  0.000001
     spin moment: {S} , |S| = {    0.00000    0.00000    0.00000 }     0.00000

SCF Convergence by DM+H criterion
max |DM_out - DM_in|         :     0.0000000342
max |H_out - H_in|      (eV) :     0.0000008656
SCF cycle converged after 9 iterations

Using DM_out to compute the final energy and forces

siesta: E_KS(eV) =            -4318.4925
     spin moment: {S} , |S| = {    0.00000    0.00000    0.00000 }     0.00000

siesta: Atomic forces (eV/Ang):
     1   -0.001890   -0.003054    0.000000
     2   -0.002077   -0.000090    0.000000
     3   -0.004195    0.001859   -0.000000
     4   -0.007488   -0.000763   -0.000000
     5   -0.005072    0.002503    0.000000
     6    0.032937   -0.013278   -0.000000
     7    0.001625   -0.000235    0.000000
     8    0.000167   -0.002670   -0.000000
     9   -0.001779   -0.002916   -0.000000
    10    0.003520   -0.001108    0.000000
    11   -0.000432    0.002084   -0.000000
    12   -0.001039    0.000332    0.000000
    13   -0.003097    0.002312    0.000000
    14   -0.000495    0.000472   -0.000000
    15   -0.000031   -0.001083    0.000000
   Tot    0.010654   -0.015636    0.000000
   Max    0.032937
   Res    0.005668    sqrt( Sum f_i^2 / 3N )
   Max    0.007488    constrained

Stress tensor Voigt[x,y,z,yz,xz,xy] (kbar):        0.00       -0.02       -0.04        0.00        0.00       -0.04
(Free)E + p*V (eV/cell)    -4318.4705
Target enthalpy (eV/cell)    -4318.4925

outcoor: Relaxed atomic coordinates (Ang):
    2.17791394   -5.14500016    0.00000000   1       1  H
    1.27855989   -4.61207848    0.00000000   2       2  N
   -0.31932463   -5.40075897    0.00000000   3       3  Si
   -0.26963524   -6.87694072    0.00000000   1       4  H
   -1.73360909   -4.47523714    0.00000000   2       5  N
   -1.16006198   -2.76542566    0.00000000   3       6  Si
   -1.48201456   -0.58553738    0.00000000   3       7  Si
   -3.00465487    0.27035479    0.00000000   2       8  N
   -3.05354158    1.31396559    0.00000000   1       9  H
   -3.91957809   -0.23295887    0.00000000   1      10  H
   -0.08480167    0.41373221    0.00000000   2      11  N
    1.54233415   -0.07413147    0.00000000   3      12  Si
    2.50225889    1.05075017    0.00000000   1      13  H
    2.29956063   -1.61876891    0.00000000   2      14  N
    1.04347983   -2.79818444    0.00000000   3      15  Si

siesta: Program's energy decomposition (eV):
siesta: Ebs     =      -559.179610
siesta: Eions   =      3880.201652
siesta: Ena     =       756.513129
siesta: Ekin    =      1252.227814
siesta: Enl(+so)=     -1193.974971
siesta: Eso(nil)=         0.000000
siesta: Edftu   =         0.000000
siesta: DEna    =        11.143670
siesta: DUscf   =         6.128396
siesta: DUext   =         0.000000
siesta: Ex      =     -1191.972265
siesta: Ec      =       -78.356661
siesta: Exc     =     -1270.328927
siesta: EbV     =         0.000000
siesta: eta*DQ  =         0.000000
siesta: Emadel  =         0.000000
siesta: Emeta   =         0.000000
siesta: Emolmec =         0.000000
siesta: Ekinion =         0.000000
siesta: Eharris =     -4318.492541
siesta: Etot    =     -4318.492541
siesta: FreeEng =     -4318.492541

siesta: Final energy (eV):
siesta:  Band Struct. =    -559.179610
siesta:       Kinetic =    1252.227814
siesta:       Hartree =    3141.066287
siesta:         Edftu =       0.000000
siesta:      Eso(nil) =       0.000000
siesta:    Ext. field =       0.000000
siesta:         Exch. =   -1191.972265
siesta:         Corr. =     -78.356661
siesta:     Bulk bias =       0.000000
siesta:   Exch.-corr. =   -1270.328927
siesta:  Ion-electron =   -7366.449138
siesta:       Ion-ion =     -75.008578
siesta:       Ekinion =       0.000000
siesta: D3 dispersion =       0.000000
siesta:         Total =   -4318.492541
siesta:         Fermi =      -3.663657

siesta: Atomic forces (eV/Ang):
siesta:      1   -0.001890   -0.003054    0.000000
siesta:      2   -0.002077   -0.000090    0.000000
siesta:      3   -0.004195    0.001859   -0.000000
siesta:      4   -0.007488   -0.000763   -0.000000
siesta:      5   -0.005072    0.002503    0.000000
siesta:      6    0.032937   -0.013278   -0.000000
siesta:      7    0.001625   -0.000235    0.000000
siesta:      8    0.000167   -0.002670   -0.000000
siesta:      9   -0.001779   -0.002916   -0.000000
siesta:     10    0.003520   -0.001108    0.000000
siesta:     11   -0.000432    0.002084   -0.000000
siesta:     12   -0.001039    0.000332    0.000000
siesta:     13   -0.003097    0.002312    0.000000
siesta:     14   -0.000495    0.000472   -0.000000
siesta:     15   -0.000031   -0.001083    0.000000
siesta: ----------------------------------------
siesta:    Tot    0.010654   -0.015636    0.000000

siesta: Stress tensor (static) (eV/Ang**3):
siesta:     0.000003   -0.000027    0.000000
siesta:    -0.000027   -0.000012    0.000000
siesta:     0.000000    0.000000   -0.000025

siesta: Cell volume =       1921.039010 Ang**3

siesta: Pressure (static):
siesta:                Solid            Molecule  Units
siesta:           0.00000013          0.00000021  Ry/Bohr**3
siesta:           0.00001148          0.00001951  eV/Ang**3
siesta:           0.01839730          0.03125865  kBar
(Free)E+ p_basis*V_orbitals  =       -4310.918356
(Free)Eharris+ p_basis*V_orbitals  =       -4310.918356
     spin moment: {S} , |S| = {    0.00000    0.00000    0.00000 }     0.00000

siesta: Electric dipole (a.u.)  =   -0.431529   -0.577616   -0.000000
siesta: Electric dipole (Debye) =   -1.096838   -1.468153   -0.000000

cite: Please see "Adenine.bib" for an exhaustive BiBTeX file.
cite: Please clearly indicate Siesta version in published work: 5.1-MaX-41-g6ad11e234
cite: This calculation has made use of the following articles
cite: which are encouraged to be cited in a published work.
        Primary SIESTA paper
          DOI: www.doi.org/10.1088/0953-8984/14/11/302
        Spin-orbit coupling (off-site approximation)
          DOI: www.doi.org/10.1088/0953-8984/24/8/086005
        ELPA library
          DOI: www.doi.org/10.1088/0953-8984/26/21/213201

>> End of run:  11-OCT-2024  19:47:24
Job completed