>> Start of run:  22-MAY-2023  16:41:45

reinit: Reading from standard input
reinit: Dumped input in INPUT_TMP.57807
************************** Dump of input data file ****************************
SystemLabel      GC
NumberOfAtoms    29
NumberOfSpecies  4
%block ChemicalSpeciesLabel
    1    8  O
    2    7  N
    3   14  Si
    4    1  H
%endblock ChemicalSpeciesLabel
# Single point calculation
MD.TypeOfRun                CG
MD.Steps                    0
SCF.MustConverge            F # In case it does not. There can be 2 very close atoms
AtomicCoordinatesFormat NotScaledCartesianAng
%block AtomicCoordinatesAndAtomicSpecies
0.854927710    3.902811360    0.000000000       1
-3.151486600   0.823854130    0.000000000       2
1.928518680    1.174000900    0.000000000       2
0.979899500    -1.830275890   0.000000000       2
-2.159258930   -2.028004800   0.000000000       2
3.785319770    -1.112700660   0.000000000       2
-1.345933810   0.976250250    0.000000000       3
-0.599439880   -1.096077170   0.000000000       3
0.453182890    2.350510230    0.000000000       3
2.133302030    -0.576510800   0.000000000       3
-3.516065660   -0.842056510   0.000000000       3
2.824527830    1.754723110    0.000000000       4
-4.877551690   -1.469214660   0.000000000       4
3.994952020    -2.143204000   0.000000000       4
4.620903610    -0.483666060   0.000000000       4
-2.279085180   -3.081514090   0.000000000       4
4.518216168    4.799049985    -0.000000000      3
6.387175658    6.058693615    -0.000000000      3
5.928243278    2.057311765    -0.000000000      3
7.995835998    4.563902985    -0.000000000      3
4.577746118    3.114097525    -0.000000000      2
2.888216968    5.429110215    -0.000000000      2
7.572132148    2.848402175    -0.000000000      2
6.667539358    7.528916135    -0.000000000      4
9.491247378    4.782755525    -0.000000000      4
2.643757978    6.447576165    -0.000000000      4
2.061475788    4.772262085    -0.000000000      4
5.987519038    0.474869735    -0.000000000      1
8.343787738    2.121434815    -0.000000000      4
%endblock AtomicCoordinatesAndAtomicSpecies
%include ../../../Defaults.fdf
************************** End of input data file *****************************

reinit: -----------------------------------------------------------------------
reinit: System Name:
reinit: -----------------------------------------------------------------------
reinit: System Label: GC
reinit: -----------------------------------------------------------------------

initatom: Reading input for the pseudopotentials and atomic orbitals ----------
Species number:   1 Atomic number:    8 Label: O
Species number:   2 Atomic number:    7 Label: N
Species number:   3 Atomic number:   14 Label: Si
Species number:   4 Atomic number:    1 Label: H

Ground state valence configuration:   2s02  2p04
Reading pseudopotential information in formatted form from O.psf

Pseudopotential generated from a relativistic atomic calculation

Valence configuration for pseudopotential generation:
2s( 2.00) rc: 0.45
2p( 4.00) rc: 0.92
3d( 0.00) rc: 2.24
4f( 0.00) rc: 0.25
Ground state valence configuration:   2s02  2p03
Reading pseudopotential information in formatted form from N.psf

[...]

Valence configuration for pseudopotential generation:
2s( 2.00) rc: 0.94
2p( 3.00) rc: 0.59
3d( 0.00) rc: 3.46
4f( 0.00) rc: 2.47
Ground state valence configuration:   3s02  3p02
Reading pseudopotential information in formatted form from Si.psf

[...]

Valence configuration for pseudopotential generation:
3s( 2.00) rc: 1.67
3p( 2.00) rc: 2.04
3d( 0.00) rc: 2.89
4f( 0.00) rc: 2.49
Ground state valence configuration:   1s01
Reading pseudopotential information in formatted form from H.psf

Pseudopotential generated from a relativistic atomic calculation

Valence configuration for pseudopotential generation:
1s( 1.00) rc: 0.01
2p( 0.00) rc: 0.60
3d( 0.00) rc: 1.99
4f( 0.00) rc: 2.49
For O, standard SIESTA heuristics set lmxkb to 3
 (one more than the basis l, including polarization orbitals).
Use PS.lmax or PS.KBprojectors blocks to override.
For N, standard SIESTA heuristics set lmxkb to 3
 (one more than the basis l, including polarization orbitals).
Use PS.lmax or PS.KBprojectors blocks to override.
For Si, standard SIESTA heuristics set lmxkb to 3
 (one more than the basis l, including polarization orbitals).
Use PS.lmax or PS.KBprojectors blocks to override.
For H, standard SIESTA heuristics set lmxkb to 2
 (one more than the basis l, including polarization orbitals).
Use PS.lmax or PS.KBprojectors blocks to override.

<basis_specs>
O                    Z=   8    Mass=  16.000        Charge= 0.17977+309
Lmxo=1 Lmxkb= 3    BasisType=split      Semic=F
L=0  Nsemic=0  Cnfigmx=2
          i=1  nzeta=2  polorb=0  (2s)
            splnorm:   0.28000
               vcte:    0.0000
               rinn:    0.0000
               qcoe:    0.0000
               qyuk:    0.0000
               qwid:   0.10000E-01
                rcs:    0.0000      0.0000
            lambdas:    1.0000      1.0000
L=1  Nsemic=0  Cnfigmx=2
          i=1  nzeta=2  polorb=1  (2p)
            splnorm:   0.28000
               vcte:    0.0000
               rinn:    0.0000
               qcoe:    0.0000
               qyuk:    0.0000
               qwid:   0.10000E-01
                rcs:    0.0000      0.0000
            lambdas:    1.0000      1.0000
L=0  Nkbl=1  erefs: 0.17977+309
L=1  Nkbl=1  erefs: 0.17977+309
L=2  Nkbl=1  erefs: 0.17977+309
L=3  Nkbl=1  erefs: 0.17977+309
</basis_specs>

atom: Called for O                     (Z =   8)

read_vps: Pseudopotential generation method:
read_vps: ATM4.2.7  Troullier-Martins
Valence charge for ps generation:    6.00000

xc_check: Exchange-correlation functional:
xc_check: GGA Perdew, Burke & Ernzerhof 1996
V l=0 = -2*Zval/r beyond r=  1.1000
V l=1 = -2*Zval/r beyond r=  1.1000
V l=2 = -2*Zval/r beyond r=  2.2154
V l=3 = -2*Zval/r beyond r=  1.1000
All V_l potentials equal beyond r=  2.2154
This should be close to max(r_c) in ps generation
All pots = -2*Zval/r beyond r=  2.2154

VLOCAL1: 99.0% of the norm of Vloc inside      8.845 Ry
VLOCAL1: 99.9% of the norm of Vloc inside     20.157 Ry
atom: Maximum radius for 4*pi*r*r*local-pseudopot. charge    2.67231
atom: Maximum radius for r*vlocal+2*Zval:    2.32897
GHOST: No ghost state for L =  0
GHOST: No ghost state for L =  1
GHOST: No ghost state for L =  2
GHOST: No ghost state for L =  3

KBgen: Kleinman-Bylander projectors:
   l= 0   rc=  2.243238   el= -1.759686   Ekb=**********   kbcos= -0.171774
   l= 1   rc=  2.328968   el= -0.663873   Ekb=-14.506792   kbcos= -0.519897
   l= 2   rc=  2.573941   el=  0.002031   Ekb= -1.137373   kbcos= -0.019581
   l= 3   rc=  2.606321   el=  0.003153   Ekb= -1.013546   kbcos= -0.003122

KBgen: Total number of Kleinman-Bylander projectors:   16
atom: -------------------------------------------------------------------------

atom: SANKEY-TYPE ORBITALS:
atom: Selected multiple-zeta basis: split

SPLIT: Orbitals with angular momentum L= 0

SPLIT: Basis orbitals for state 2s

SPLIT: PAO cut-off radius determined from an
SPLIT: energy shift=  0.002000 Ry

   izeta = 1
                 lambda =    1.000000
                     rc =    4.243912
                 energy =   -1.758270
                kinetic =    3.286084
    potential(screened) =   -5.044353
       potential(ionic) =  -12.921184

   izeta = 2
                 rmatch =    2.187845
              splitnorm =    0.280000
                 energy =   -0.885018
                kinetic =    8.134434
    potential(screened) =   -9.019452
       potential(ionic) =  -17.710645

[...]

SPLIT: Basis orbitals for state 2p

[...]

POLgen: Perturbative polarization orbital with L=  2

POLgen: Polarization orbital for state 2p

   izeta = 1
                     rc =    5.314825
                 energy =    1.970580
                kinetic =    3.886128
    potential(screened) =   -1.915547
       potential(ionic) =   -7.749584
atom: Total number of Sankey-type orbitals: 13

atm_pop: Valence configuration (for local Pseudopot. screening):
 2s( 2.00)
 2p( 4.00)
Vna: chval, zval:    6.00000   6.00000

Vna:  Cut-off radius for the neutral-atom potential:   5.314825

atom: _________________________________________________________________________

[...]

KBgen: Kleinman-Bylander projectors:
   l= 0   rc=  3.417763   el= -1.365098   Ekb= -4.433130   kbcos= -0.707855
   l= 1   rc=  3.375302   el= -0.521201   Ekb=-13.264039   kbcos= -0.535594
   l= 2   rc=  3.872880   el=  0.001991   Ekb= -0.641094   kbcos= -0.062456
   l= 3   rc=  3.970931   el=  0.003093   Ekb= -0.474517   kbcos= -0.018236

[...]

<basis_specs>
Si                   Z=  14    Mass=  28.090        Charge= 0.17977+309
Lmxo=1 Lmxkb= 3    BasisType=split      Semic=F
L=0  Nsemic=0  Cnfigmx=3
          i=1  nzeta=2  polorb=0  (3s)
            splnorm:   0.28000
               vcte:    0.0000
               rinn:    0.0000
               qcoe:    0.0000
               qyuk:    0.0000
               qwid:   0.10000E-01
                rcs:    0.0000      0.0000
            lambdas:    1.0000      1.0000
L=1  Nsemic=0  Cnfigmx=3
          i=1  nzeta=2  polorb=1  (3p)
            splnorm:   0.28000
               vcte:    0.0000
               rinn:    0.0000
               qcoe:    0.0000
               qyuk:    0.0000
               qwid:   0.10000E-01
                rcs:    0.0000      0.0000
            lambdas:    1.0000      1.0000
L=0  Nkbl=1  erefs: 0.17977+309
L=1  Nkbl=1  erefs: 0.17977+309
L=2  Nkbl=1  erefs: 0.17977+309
L=3  Nkbl=1  erefs: 0.17977+309
</basis_specs>

[...]

KBgen: Kleinman-Bylander projectors:
   l= 0   rc=  3.075247   el= -0.794092   Ekb=  5.879390   kbcos=  0.167461
   l= 1   rc=  3.153101   el= -0.300068   Ekb=  2.642817   kbcos=  0.058301
   l= 2   rc=  3.273594   el=  0.001958   Ekb= -1.185135   kbcos= -0.104411
   l= 3   rc=  3.232927   el=  0.003046   Ekb= -0.497174   kbcos= -0.015889

[...]

SPLIT: Basis orbitals for state 3p

[...]

POLgen: Polarization orbital for state 3p

[...]

atm_pop: Valence configuration (for local Pseudopot. screening):
 3s( 2.00)
 3p( 2.00)
Vna: chval, zval:    4.00000   4.00000

[...]

<basis_specs>
H                    Z=   1    Mass=  1.0100        Charge= 0.17977+309
Lmxo=0 Lmxkb= 2    BasisType=split      Semic=F
L=0  Nsemic=0  Cnfigmx=1
          i=1  nzeta=2  polorb=1  (1s)
            splnorm:   0.62000
               vcte:    0.0000
               rinn:    0.0000
               qcoe:    0.0000
               qyuk:    0.0000
               qwid:   0.10000E-01
                rcs:    0.0000      0.0000
            lambdas:    1.0000      1.0000
L=0  Nkbl=1  erefs: 0.17977+309
L=1  Nkbl=1  erefs: 0.17977+309
L=2  Nkbl=1  erefs: 0.17977+309
</basis_specs>

atom: Called for H                     (Z =   1)

read_vps: Pseudopotential generation method:
read_vps: ATM4.2.7  Troullier-Martins
Valence charge for ps generation:    1.00000

xc_check: Exchange-correlation functional:
xc_check: GGA Perdew, Burke & Ernzerhof 1996
V l=0 = -2*Zval/r beyond r=  0.0098
V l=1 = -2*Zval/r beyond r=  0.5817
V l=2 = -2*Zval/r beyond r=  1.9372
[...]
     spin moment: S , {S} =    0.00000   0.00000   0.00000  -0.00000

SCF Convergence by DM+H criterion
max |DM_out - DM_in|         :     0.0000001562
max |H_out - H_in|      (eV) :     0.0000006248
SCF cycle converged after 32 iterations

Using DM_out to compute the final energy and forces
No. of atoms with KB's overlaping orbs in proc 0. Max # of overlaps:      29     206

siesta: E_KS(eV) =            -4147.7634

siesta: E_KS - E_eggbox =     -4147.7634
     spin moment: S , {S} =    0.00000   0.00000   0.00000  -0.00000

siesta: Atomic forces (eV/Ang):
     1    1.344320    2.846030   -0.000000
     2   -0.047661   -0.009308    0.000000
     3   -0.732224    0.352828    0.000000
     4   -0.702760   -0.054697   -0.000000
     5   -0.048411    0.085979    0.000000
     6   -1.470444   -0.536155   -0.000000
     7   -0.056196    0.240782    0.000000
     8    0.418386   -0.226181   -0.000000
     9    0.237286   -1.189622   -0.000000
    10    1.057235   -0.207374    0.000000
    11   -0.008883    0.044795    0.000000
    12    0.302205    0.161583   -0.000000
    13    0.037118    0.106707   -0.000000
    14   -0.284011    0.005538    0.000000
    15    1.040735    0.751640    0.000000
    16    0.085762    0.140175   -0.000000
    17   -1.086584    1.014875   -0.000000
    18    0.221288   -0.189724   -0.000000
    19    0.212407    1.168043    0.000000
    20   -0.007674    0.387446    0.000000
    21    0.272698   -1.071726    0.000000
    22    2.360761    0.967035   -0.000000
    23   -0.251329   -0.531546   -0.000000
    24   -0.042974    0.049342    0.000000
    25   -0.081001   -0.039781   -0.000000
    26    0.139118    0.232910    0.000000
    27   -1.136051   -0.915444    0.000000
    28   -1.870829   -3.307848   -0.000000
    29    0.039292    0.099973   -0.000000
   Tot   -0.058421    0.376275   -0.000000
   Max    3.307848
   Res    0.734490    sqrt( Sum f_i^2 / 3N )
   Max    3.307848    constrained

Stress tensor Voigt[x,y,z,yz,xz,xy] (kbar):       -0.60       -1.01       -0.10       -0.00        0.00       -1.14
(Free)E + p*V (eV/cell)    -4146.1812
Target enthalpy (eV/cell)    -4147.7634

mulliken: Atomic and Orbital Populations:

Species: O

Atom      Orb        Charge      Spin       Svec
    1  7 2pz       -0.01555   0.00000     -0.000  -0.000  -0.000
    1  9 3Pdxy      0.01019   0.00000      0.000   0.000   0.000
    1 10 3Pdyz      0.00778   0.00000     -0.000   0.000  -0.000
    1 11 3Pdz2      0.00252   0.00000     -0.000  -0.000  -0.000
    1 12 3Pdxz      0.00016   0.00000      0.000   0.000   0.000
    1 13 3Pdx2-y2   0.00603   0.00000     -0.000   0.000   0.000
    1     Total     6.49664   0.00000      0.000   0.000  -0.000

   28  7 2pz       -0.01178   0.00000      0.000  -0.000   0.000
   28  8 2px       -0.00050   0.00000     -0.000  -0.000   0.000
   28  9 3Pdxy      0.00929   0.00000      0.000  -0.000  -0.000
   28 10 3Pdyz      0.00918   0.00000      0.000  -0.000   0.000
   28 11 3Pdz2      0.00181   0.00000     -0.000   0.000  -0.000
   28 12 3Pdxz     -0.00000   0.00000     -0.000   0.000  -0.000
   28 13 3Pdx2-y2   0.00723   0.00000     -0.000   0.000  -0.000
   28     Total     6.50985   0.00000      0.000   0.000   0.000

Total              13.00649   0.00000      0.000   0.000   0.000

[...]

Atom      Orb        Charge      Spin       Svec
    2  9 3Pdxy      0.00839   0.00000     -0.000   0.000  -0.000
    2 10 3Pdyz      0.01078   0.00000     -0.000  -0.000   0.000
    2 11 3Pdz2      0.00191   0.00000     -0.000  -0.000   0.000
    2 12 3Pdxz      0.00751   0.00000     -0.000   0.000   0.000
    2 13 3Pdx2-y2   0.00892   0.00000     -0.000   0.000  -0.000
    2     Total     5.37145   0.00000      0.000   0.000  -0.000

    3  9 3Pdxy      0.00430   0.00000     -0.000   0.000   0.000
    3 10 3Pdyz      0.00395   0.00000      0.000   0.000  -0.000
    3 11 3Pdz2      0.00058   0.00000     -0.000   0.000  -0.000
    3 12 3Pdxz      0.00261   0.00000      0.000  -0.000  -0.000
    3 13 3Pdx2-y2   0.00270   0.00000     -0.000   0.000   0.000
    3     Total     5.51973   0.00000      0.000  -0.000   0.000

[...]

Atom      Orb        Charge      Spin       Svec
    7  9 3Pdxy      0.24324   0.00000      0.000  -0.000   0.000
    7 10 3Pdyz      0.02980   0.00000     -0.000   0.000  -0.000
    7 11 3Pdz2      0.01180   0.00000     -0.000  -0.000   0.000
    7 12 3Pdxz      0.13952   0.00000      0.000  -0.000  -0.000
    7 13 3Pdx2-y2   0.11452   0.00000      0.000  -0.000  -0.000
    7     Total     3.84255   0.00000     -0.000  -0.000   0.000

    8  5 3px       -0.02303   0.00000      0.000  -0.000   0.000
    8  9 3Pdxy      0.26229   0.00000      0.000   0.000  -0.000
    8 10 3Pdyz      0.10959   0.00000      0.000   0.000   0.000
    8 11 3Pdz2      0.01266   0.00000      0.000   0.000   0.000
    8 12 3Pdxz      0.15935   0.00000      0.000   0.000   0.000
    8 13 3Pdx2-y2   0.19023   0.00000     -0.000   0.000   0.000
    8     Total     3.65219   0.00000      0.000  -0.000   0.000

[...]

   20  9 3Pdxy      0.10219   0.00000     -0.000   0.000  -0.000
   20 10 3Pdyz      0.13189   0.00000      0.000  -0.000   0.000
   20 11 3Pdz2      0.00785   0.00000     -0.000   0.000  -0.000
   20 12 3Pdxz      0.02640   0.00000     -0.000  -0.000  -0.000
   20 13 3Pdx2-y2   0.17534   0.00000      0.000   0.000   0.000
   20     Total     3.52769   0.00000      0.000   0.000   0.000

[...]

Species: H

Atom      Orb        Charge      Spin       Svec
   12  3 2Ppy       0.04155   0.00000      0.000   0.000  -0.000
   12  4 2Ppz       0.03260   0.00000      0.000   0.000  -0.000
   12  5 2Ppx       0.04673   0.00000     -0.000  -0.000  -0.000
   12     Total     0.78050   0.00000     -0.000   0.000  -0.000

   13  3 2Ppy       0.01981   0.00000     -0.000  -0.000  -0.000
   13  4 2Ppz       0.02008   0.00000      0.000  -0.000   0.000
   13  5 2Ppx       0.03316   0.00000      0.000  -0.000   0.000
   13     Total     1.18884   0.00000     -0.000  -0.000  -0.000

[...]

   29  3 2Ppy       0.02514   0.00000      0.000   0.000   0.000
   29  4 2Ppz       0.03508   0.00000      0.000   0.000  -0.000
   29  5 2Ppx       0.02699   0.00000      0.000  -0.000   0.000
   29     Total     0.76502   0.00000     -0.000   0.000   0.000

Total              98.00000   0.00000      0.000   0.000  -0.000

siesta: Eigenvalues (eV):
ik =     1
  -22.9199  -22.9199  -22.6741  -22.6741  -21.3770  -21.3770  -21.3032  -21.3032  -20.9335  -20.9335
  -20.6497  -20.6497  -20.2287  -20.2287  -19.6608  -19.6608  -19.5534  -19.5534  -19.3761  -19.3761
  -14.7381  -14.7381  -13.8377  -13.8377  -13.2400  -13.2400  -13.1546  -13.1546  -12.8863  -12.8863
  -12.6579  -12.6579  -12.5910  -12.5910  -11.9902  -11.9902  -11.8921  -11.8921  -11.7366  -11.7366
  -11.0278  -11.0278  -10.7917  -10.7917  -10.6075  -10.6075  -10.3467  -10.3467  -10.1346  -10.1346
   -9.6969   -9.6969   -9.0348   -9.0348   -8.9763   -8.9763   -8.8783   -8.8783   -8.6456   -8.6456
   -8.5036   -8.5036   -8.4538   -8.4538   -8.3963   -8.3963   -7.9714   -7.9714   -7.9602   -7.9602
   -7.5504   -7.5504   -7.4267   -7.4267   -7.3474   -7.3474   -7.1669   -7.1669   -6.9350   -6.9350
   -6.7621   -6.7621   -6.6756   -6.6756   -6.5159   -6.5159   -6.4172   -6.4172   -6.1991   -6.1991
   -6.0467   -6.0467   -6.0001   -6.0001   -5.4931   -5.4931   -4.3786   -4.3786   -3.2032   -3.2032
   -2.4477   -2.4477   -2.2943   -2.2943   -2.2220   -2.2220   -1.9907   -1.9907   -1.8873   -1.8873
   -1.8397   -1.8397   -1.7156   -1.7156   -1.6561   -1.6561   -1.2703   -1.2703   -1.1407   -1.1407
   -1.1364   -1.1364   -0.5478   -0.5478   -0.4422   -0.4422   -0.4096   -0.4096    0.3460    0.3460
    0.3626    0.3626    0.5515    0.5515    0.7639    0.7639    0.8527    0.8527    1.2291    1.2291
    1.3604    1.3604    1.4395    1.4395    1.4576    1.4576    1.5308    1.5308    1.9695    1.9695
    2.1963    2.1963    2.5877    2.5877    2.6936    2.6936    2.7673    2.7673    2.9669    2.9669
    2.9846    2.9846    3.1855    3.1855    3.3398    3.3398    3.3507    3.3507    3.7401    3.7401
    3.7947    3.7947    4.0900    4.0900    4.1034    4.1034    4.1476    4.1476    4.3321    4.3321
    4.6072    4.6072    4.6152    4.6152    4.7318    4.7318    5.0856    5.0856    5.2680    5.2680
    5.2875    5.2875    5.5064    5.5064    5.5898    5.5898    5.6621    5.6621    5.8813    5.8813
    5.9919    5.9919    6.4064    6.4064    6.4513    6.4513    6.5765    6.5765    6.6640    6.6640
    6.7504    6.7504    6.9015    6.9015    6.9855    6.9855    7.1480    7.1480    7.1888    7.1888
    7.4447    7.4447    7.6174    7.6174    7.7815    7.7815    8.0256    8.0256    8.0672    8.0672
    8.1798    8.1798    8.4407    8.4407    8.5992    8.5992    8.6905    8.6905    8.7009    8.7009
    8.7751    8.7751    9.0697    9.0697    9.0766    9.0766    9.3281    9.3281    9.4201    9.4201
    9.6198    9.6198    9.8201    9.8201    9.8831    9.8831    9.9595    9.9595   10.1686   10.1686
   10.4313   10.4313   10.6564   10.6564   10.8150   10.8150   11.1726   11.1726   11.1895   11.1895
   11.4020   11.4020   11.6434   11.6434   12.3175   12.3175   12.3927   12.3927   12.4243   12.4243
   12.4499   12.4499   12.5636   12.5636   13.1653   13.1653   13.2565   13.2565   13.3739   13.3739
   13.6971   13.6971   13.7482   13.7482   14.0052   14.0052   14.1559   14.1559   14.2117   14.2117
   14.4258   14.4258   14.5336   14.5336   14.6574   14.6574   14.8236   14.8236   14.9881   14.9881
   15.4746   15.4746   16.2481   16.2481   16.6196   16.6196   16.7380   16.7380   16.7612   16.7612
   17.2760   17.2760   17.8424   17.8424   18.2115   18.2115   18.4752   18.4752   18.9765   18.9765
   19.6783   19.6783   20.1326   20.1326   20.2198   20.2198   20.6114   20.6114   20.9998   20.9998
   21.3447   21.3447   21.9917   21.9917   22.2006   22.2006   22.8116   22.8116   22.9236   22.9236
   23.6995   23.6995   23.8147   23.8147   24.1277   24.1277   24.5627   24.5627   25.0274   25.0274
   25.6297   25.6297   26.0936   26.0936   26.7759   26.7759   27.7723   27.7723   28.7170   28.7170
   29.2462   29.2462   29.7722   29.7722   29.9964   29.9964   30.2646   30.2646   30.6799   30.6799
   30.8577   30.8577   30.9518   30.9518   31.2866   31.2866   31.6658   31.6658   31.8468   31.8468
   32.6043   32.6043   33.5232   33.5232   33.7968   33.7968   33.9655   33.9655   34.2344   34.2344
   34.7348   34.7348   35.3797   35.3797   36.0038   36.0038   36.3049   36.3049   36.6662   36.6662
   37.0128   37.0128   37.0341   37.0341   37.1068   37.1068   37.3164   37.3164   38.4361   38.4361
   38.8475   38.8475   39.2005   39.2005   39.5764   39.5764   39.6134   39.6134   40.2149   40.2149
   40.4767   40.4767   40.8239   40.8239   41.7402   41.7402   41.7626   41.7626   41.9821   41.9821
   42.1298   42.1298   42.7042   42.7042   42.8090   42.8090   43.2189   43.2189   43.7661   43.7661
   44.1228   44.1228   44.3742   44.3742   44.5332   44.5332   44.7918   44.7918   45.1379   45.1379
   45.2135   45.2135   45.6382   45.6382   46.2336   46.2336   46.3551   46.3551   46.6949   46.6949
   46.9688   46.9688   47.8772   47.8772   48.4694   48.4694   49.4050   49.4050   49.7236   49.7236
   50.1164   50.1164   50.4118   50.4118   50.7999   50.7999   50.8752   50.8752   51.3909   51.3909
   51.7826   51.7826   52.4138   52.4138   52.5975   52.5975   54.2753   54.2753   54.3620   54.3620
   54.4804   54.4804   54.7912   54.7912   55.7812   55.7812   55.8957   55.8957   56.1198   56.1198
   56.2288   56.2288   57.2548   57.2548   58.1591   58.1591   58.4092   58.4092   59.2964   59.2964
   59.9875   59.9875   60.3997   60.3997   60.7716   60.7716   61.3439   61.3439   62.1437   62.1437
   62.3578   62.3578   62.9691   62.9691   63.8508   63.8508   64.3309   64.3309   66.3258   66.3258
   66.9835   66.9835   68.3209   68.3209   69.0042   69.0042   69.2880   69.2880   70.6392   70.6392
   71.2899   71.2899   71.4800   71.4800   74.2625   74.2625   75.5425   75.5425   87.6746   87.6746
   89.7651   89.7651   90.6225   90.6225   94.6027   94.6027   96.1215   96.1215   97.7104   97.7104
  101.0960  101.0960  102.3815  102.3815  103.5566  103.5566  104.2969  104.2969  106.8823  106.8823
  115.3906  115.3906  118.1101  118.1101  124.8880  124.8880  128.0125  128.0125  139.2053  139.2053
  149.6742  149.6742  149.8516  149.8516
siesta: Fermi energy =      -3.791197 eV

siesta: Program's energy decomposition (eV):
siesta: Ebs     =     -1135.481729
siesta: Eions   =      3585.165840
siesta: Ena     =       384.608927
siesta: Ekin    =      2915.296500
siesta: Enl     =     -2801.362017
siesta: Eso     =        -0.004310
siesta: Edftu   =         0.000000
siesta: DEna    =        48.389221
siesta: DUscf   =        13.779610
siesta: DUext   =         0.000000
siesta: Exc     =     -1123.305515
siesta: eta*DQ  =         0.000000
siesta: Emadel  =         0.000000
siesta: Emeta   =         0.000000
siesta: Emolmec =         0.000000
siesta: Ekinion =         0.000000
siesta: Eharris =     -4147.763425
siesta: Etot    =     -4147.763425
siesta: FreeEng =     -4147.763425

siesta: Final energy (eV):
siesta:  Band Struct. =   -1135.481729
siesta:       Kinetic =    2915.296500
siesta:       Hartree =    9094.477562
siesta:       Edftu   =       0.000000
siesta:       Eso     =      -0.004310
siesta:    Ext. field =       0.000000
siesta:   Exch.-corr. =   -1123.305515
siesta:  Ion-electron =  -20781.356782
siesta:       Ion-ion =    5747.129121
siesta:       Ekinion =       0.000000
siesta:         Total =   -4147.763425
siesta:         Fermi =      -3.791197

siesta: Atomic forces (eV/Ang):
siesta:      1    1.344320    2.846030   -0.000000
siesta:      2   -0.047661   -0.009308    0.000000
siesta:      3   -0.732224    0.352828    0.000000
siesta:      4   -0.702760   -0.054697   -0.000000
siesta:      5   -0.048411    0.085979    0.000000
siesta:      6   -1.470444   -0.536155   -0.000000
siesta:      7   -0.056196    0.240782    0.000000
siesta:      8    0.418386   -0.226181   -0.000000
siesta:      9    0.237286   -1.189622   -0.000000
siesta:     10    1.057235   -0.207374    0.000000
siesta:     11   -0.008883    0.044795    0.000000
siesta:     12    0.302205    0.161583   -0.000000
siesta:     13    0.037118    0.106707   -0.000000
siesta:     14   -0.284011    0.005538    0.000000
siesta:     15    1.040735    0.751640    0.000000
siesta:     16    0.085762    0.140175   -0.000000
siesta:     17   -1.086584    1.014875   -0.000000
siesta:     18    0.221288   -0.189724   -0.000000
siesta:     19    0.212407    1.168043    0.000000
siesta:     20   -0.007674    0.387446    0.000000
siesta:     21    0.272698   -1.071726    0.000000
siesta:     22    2.360761    0.967035   -0.000000
siesta:     23   -0.251329   -0.531546   -0.000000
siesta:     24   -0.042974    0.049342    0.000000
siesta:     25   -0.081001   -0.039781   -0.000000
siesta:     26    0.139118    0.232910    0.000000
siesta:     27   -1.136051   -0.915444    0.000000
siesta:     28   -1.870829   -3.307848   -0.000000
siesta:     29    0.039292    0.099973   -0.000000
siesta: ----------------------------------------
siesta:    Tot   -0.058421    0.376275   -0.000000

siesta: Stress tensor (static) (eV/Ang**3):
siesta:    -0.000374   -0.000714   -0.000000
siesta:    -0.000714   -0.000629   -0.000000
siesta:     0.000000   -0.000000   -0.000065

siesta: Cell volume =       4440.271876 Ang**3

siesta: Pressure (static):
siesta:                Solid            Molecule  Units
siesta:           0.00000388          0.00000148  Ry/Bohr**3
siesta:           0.00035634          0.00013613  eV/Ang**3
siesta:           0.57092735          0.21809939  kBar
(Free)E+ p_basis*V_orbitals  =       -4127.913007
(Free)Eharris+ p_basis*V_orbitals  =       -4127.913007
     spin moment: S , {S} =    0.00000   0.00000   0.00000  -0.00000

siesta: Electric dipole (a.u.)  =    1.398584    0.076647   -0.000000
siesta: Electric dipole (Debye) =    3.554848    0.194819   -0.000000

cite: Please see "GC.bib" for an exhaustive BiBTeX file.
cite: Please clearly indicate Siesta version in published work: v4.1.5-1-g384057250
cite: This calculation has made use of the following articles
cite: which are encouraged to be cited in a published work.
        Primary SIESTA paper
          DOI: www.doi.org/10.1088/0953-8984/14/11/302
        Spin-orbit coupling (on-site approximation)
          DOI: www.doi.org/10.1088/0953-8984/19/19/489001

WARNING: alloc-realloc-dealloc name mismatch
         Name: atomlist isa
         Node:     0
         Subsequent mismatches will not be reported
>> End of run:  22-MAY-2023  16:46:18
Job completed