>> Start of run:  24-FEB-2022  14:12:15

reinit: Reading from standard input
reinit: Dumped input in INPUT_TMP.25531
************************** Dump of input data file ****************************
SystemLabel      ribosa
NumberOfAtoms    18
NumberOfSpecies  3
%block ChemicalSpeciesLabel
    1    1  H
    2    8  O
    3   14  Si
%endblock ChemicalSpeciesLabel
AtomicCoordinatesFormat NotScaledCartesianAng
%block AtomicCoordinatesAndAtomicSpecies
   -0.70572441    8.81469146    1.75531598   1       1  H
   -0.00051591    8.11436777    1.66888610   2       2  O
    0.82006423    7.70850736    3.17105309   3       3  Si
   -0.09011235    6.96632882    4.12285375   1       4  H
    1.24129333    8.99574942    3.86022610   1       5  H
    2.89223334    6.71566844    2.59025153   3       6  Si
    3.81272117    6.87849363    3.77299113   1       7  H
    2.71185018    5.02966146    2.10382559   2       8  O
    2.31733451    4.55067984    0.55282812   3       9  Si
    3.28016206    3.52741423   -0.00074615   1      10  H
    0.97572212    3.88056378    0.78998402   1      11  H
    3.34557889    7.96591788    0.65176188   3      12  Si
    2.92639968    9.43376967    0.70135137   1      13  H
    2.13035451    6.52713775   -0.78148662   3      14  Si
    0.70905752    6.96616296   -1.05210820   1      15  H
    2.83798596    6.34893256   -2.10625758   1      16  H
    5.05295828    7.76180264    0.34801243   2      17  O
    5.31848455    7.93660005   -0.59691467   1      18  H
%endblock AtomicCoordinatesAndAtomicSpecies
%include ../defaults.fdf
************************** End of input data file *****************************

reinit: -----------------------------------------------------------------------
reinit: System Name:
reinit: -----------------------------------------------------------------------
reinit: System Label: ribosa
reinit: -----------------------------------------------------------------------

initatom: Reading input for the pseudopotentials and atomic orbitals ----------
Species number:   1 Atomic number:    1 Label: H
Species number:   2 Atomic number:    8 Label: O
Species number:   3 Atomic number:   14 Label: Si

Ground state valence configuration:   1s01
Reading pseudopotential information in formatted form from H.psf

Pseudopotential generated from a relativistic atomic calculation

Valence configuration for pseudopotential generation:
1s( 1.00) rc: 0.01
2p( 0.00) rc: 0.60
3d( 0.00) rc: 1.99
4f( 0.00) rc: 2.49
Ground state valence configuration:   2s02  2p04
Reading pseudopotential information in formatted form from O.psf

[...]

Valence configuration for pseudopotential generation:
2s( 2.00) rc: 0.45
2p( 4.00) rc: 0.92
3d( 0.00) rc: 2.24
4f( 0.00) rc: 0.25
Ground state valence configuration:   3s02  3p02
Reading pseudopotential information in formatted form from Si.psf

Pseudopotential generated from a relativistic atomic calculation

Valence configuration for pseudopotential generation:
3s( 2.00) rc: 1.67
3p( 2.00) rc: 2.04
3d( 0.00) rc: 2.89
4f( 0.00) rc: 0.25
For H, standard SIESTA heuristics set lmxkb to 2
 (one more than the basis l, including polarization orbitals).
Use PS.lmax or PS.KBprojectors blocks to override.
For O, standard SIESTA heuristics set lmxkb to 3
 (one more than the basis l, including polarization orbitals).
Use PS.lmax or PS.KBprojectors blocks to override.
For Si, standard SIESTA heuristics set lmxkb to 3
 (one more than the basis l, including polarization orbitals).
Use PS.lmax or PS.KBprojectors blocks to override.

<basis_specs>
H                    Z=   1    Mass=  1.0100        Charge= 0.17977+309
Lmxo=0 Lmxkb= 2    BasisType=split      Semic=F
L=0  Nsemic=0  Cnfigmx=1
          i=1  nzeta=2  polorb=1  (1s)
            splnorm:   0.62000
               vcte:    0.0000
               rinn:    0.0000
               qcoe:    0.0000
               qyuk:    0.0000
               qwid:   0.10000E-01
                rcs:    0.0000      0.0000
            lambdas:    1.0000      1.0000
L=0  Nkbl=1  erefs: 0.17977+309
L=1  Nkbl=1  erefs: 0.17977+309
L=2  Nkbl=1  erefs: 0.17977+309
</basis_specs>

atom: Called for H                     (Z =   1)

read_vps: Pseudopotential generation method:
read_vps: ATM4.2.7  Troullier-Martins
Valence charge for ps generation:    1.00000

xc_check: Exchange-correlation functional:
xc_check: GGA Perdew, Burke & Ernzerhof 1996
V l=0 = -2*Zval/r beyond r=  0.0098
V l=1 = -2*Zval/r beyond r=  0.5817
V l=2 = -2*Zval/r beyond r=  1.9372
All V_l potentials equal beyond r=  1.9372
This should be close to max(r_c) in ps generation
All pots = -2*Zval/r beyond r=  1.9372

VLOCAL1: 99.0% of the norm of Vloc inside     11.567 Ry
VLOCAL1: 99.9% of the norm of Vloc inside     26.362 Ry
atom: Maximum radius for 4*pi*r*r*local-pseudopot. charge    2.25106
atom: Maximum radius for r*vlocal+2*Zval:    1.91306
GHOST: No ghost state for L =  0
GHOST: No ghost state for L =  1
GHOST: No ghost state for L =  2

KBgen: Kleinman-Bylander projectors:
   l= 0   rc=  2.036604   el= -0.477180   Ekb= -6.081590   kbcos= -0.277285
   l= 1   rc=  2.195416   el=  0.001076   Ekb= -0.926943   kbcos= -0.034643
   l= 2   rc=  2.251056   el=  0.002010   Ekb= -0.130941   kbcos= -0.009788

KBgen: Total number of Kleinman-Bylander projectors:    9
atom: -------------------------------------------------------------------------

atom: SANKEY-TYPE ORBITALS:
atom: Selected multiple-zeta basis: split

SPLIT: Orbitals with angular momentum L= 0

SPLIT: Basis orbitals for state 1s

SPLIT: PAO cut-off radius determined from an
SPLIT: energy shift=  0.002000 Ry

   izeta = 1
                 lambda =    1.000000
                     rc =    6.518340
                 energy =   -0.475305
                kinetic =    0.912139
    potential(screened) =   -1.387444
       potential(ionic) =   -1.907295

   izeta = 2
                 rmatch =    2.141150
              splitnorm =    0.620000
                 energy =    0.566467
                kinetic =    3.772856
    potential(screened) =   -3.206389
       potential(ionic) =   -3.759093

POLgen: Perturbative polarization orbital with L=  1

POLgen: Polarization orbital for state 1s

   izeta = 1
                     rc =    6.518340
                 energy =    0.533861
                kinetic =    1.121086
    potential(screened) =   -0.587225
       potential(ionic) =   -1.053027
atom: Total number of Sankey-type orbitals:  5

atm_pop: Valence configuration (for local Pseudopot. screening):
 1s( 1.00)
Vna: chval, zval:    1.00000   1.00000

Vna:  Cut-off radius for the neutral-atom potential:   6.518340

atom: _________________________________________________________________________

<basis_specs>
O                    Z=   8    Mass=  16.000        Charge= 0.17977+309
Lmxo=1 Lmxkb= 3    BasisType=split      Semic=F
L=0  Nsemic=0  Cnfigmx=2
          i=1  nzeta=2  polorb=0  (2s)
            splnorm:   0.28000
               vcte:    0.0000
               rinn:    0.0000
               qcoe:    0.0000
               qyuk:    0.0000
               qwid:   0.10000E-01
                rcs:    0.0000      0.0000
            lambdas:    1.0000      1.0000
L=1  Nsemic=0  Cnfigmx=2
          i=1  nzeta=2  polorb=1  (2p)
            splnorm:   0.28000
               vcte:    0.0000
               rinn:    0.0000
               qcoe:    0.0000
               qyuk:    0.0000
               qwid:   0.10000E-01
                rcs:    0.0000      0.0000
            lambdas:    1.0000      1.0000
L=0  Nkbl=1  erefs: 0.17977+309
L=1  Nkbl=1  erefs: 0.17977+309
L=2  Nkbl=1  erefs: 0.17977+309
L=3  Nkbl=1  erefs: 0.17977+309
</basis_specs>

[...]

KBgen: Kleinman-Bylander projectors:
   l= 0   rc=  2.243238   el= -1.759686   Ekb=**********   kbcos= -0.171774
   l= 1   rc=  2.328968   el= -0.663873   Ekb=-14.506792   kbcos= -0.519897
   l= 2   rc=  2.573941   el=  0.002031   Ekb= -1.137373   kbcos= -0.019581
   l= 3   rc=  2.606321   el=  0.003153   Ekb= -1.013546   kbcos= -0.003122

[...]

SPLIT: Basis orbitals for state 2p

[...]

POLgen: Polarization orbital for state 2p

[...]

atm_pop: Valence configuration (for local Pseudopot. screening):
 2s( 2.00)
 2p( 4.00)
Vna: chval, zval:    6.00000   6.00000

[...]

<basis_specs>
Si                   Z=  14    Mass=  28.090        Charge= 0.17977+309
Lmxo=1 Lmxkb= 3    BasisType=split      Semic=F
L=0  Nsemic=0  Cnfigmx=3
          i=1  nzeta=2  polorb=0  (3s)
            splnorm:   0.28000
               vcte:    0.0000
               rinn:    0.0000
               qcoe:    0.0000
               qyuk:    0.0000
               qwid:   0.10000E-01
                rcs:    0.0000      0.0000
            lambdas:    1.0000      1.0000
L=1  Nsemic=0  Cnfigmx=3
          i=1  nzeta=2  polorb=1  (3p)
            splnorm:   0.28000
               vcte:    0.0000
               rinn:    0.0000
               qcoe:    0.0000
               qyuk:    0.0000
               qwid:   0.10000E-01
                rcs:    0.0000      0.0000
            lambdas:    1.0000      1.0000
L=0  Nkbl=1  erefs: 0.17977+309
L=1  Nkbl=1  erefs: 0.17977+309
L=2  Nkbl=1  erefs: 0.17977+309
L=3  Nkbl=1  erefs: 0.17977+309
</basis_specs>

atom: Called for Si                    (Z =  14)

read_vps: Pseudopotential generation method:
read_vps: ATM4.2.7  Troullier-Martins
Valence charge for ps generation:    4.00000

xc_check: Exchange-correlation functional:
xc_check: GGA Perdew, Burke & Ernzerhof 1996
V l=0 = -2*Zval/r beyond r=  2.7826
V l=1 = -2*Zval/r beyond r=  2.7826
V l=2 = -2*Zval/r beyond r=  2.9253
V l=3 = -2*Zval/r beyond r=  2.7826
All V_l potentials equal beyond r=  2.8530
This should be close to max(r_c) in ps generation
All pots = -2*Zval/r beyond r=  2.9253

VLOCAL1: 99.0% of the norm of Vloc inside      5.333 Ry
VLOCAL1: 99.9% of the norm of Vloc inside     12.154 Ry
atom: Maximum radius for 4*pi*r*r*local-pseudopot. charge    3.39869
atom: Maximum radius for r*vlocal+2*Zval:    2.96205
GHOST: No ghost state for L =  0
GHOST: No ghost state for L =  1
GHOST: No ghost state for L =  2
GHOST: No ghost state for L =  3

KBgen: Kleinman-Bylander projectors:
   l= 0   rc=  3.075247   el= -0.794092   Ekb=  5.879390   kbcos=  0.167461
   l= 1   rc=  3.153101   el= -0.300068   Ekb=  2.642817   kbcos=  0.058301
   l= 2   rc=  3.273594   el=  0.001958   Ekb= -1.185135   kbcos= -0.104411
   l= 3   rc=  3.232927   el=  0.003046   Ekb= -1.061051   kbcos= -0.011037

KBgen: Total number of Kleinman-Bylander projectors:   16
atom: -------------------------------------------------------------------------

atom: SANKEY-TYPE ORBITALS:
atom: Selected multiple-zeta basis: split

[...]

SPLIT: Basis orbitals for state 3s

[...]

SPLIT: Orbitals with angular momentum L= 1

SPLIT: Basis orbitals for state 3p

SPLIT: PAO cut-off radius determined from an
SPLIT: energy shift=  0.002000 Ry

   izeta = 1
                 lambda =    1.000000
                     rc =    8.464845
                 energy =   -0.298236
                kinetic =    0.785360
    potential(screened) =   -1.083596
       potential(ionic) =   -3.273779

   izeta = 2
                 rmatch =    4.587816
              splitnorm =    0.280000
[...]
    2.19970943    6.49377566   -0.79626550   3      14  Si
    0.78441968    6.96309115   -0.98678890   1      15  H
    2.84435510    6.34065937   -2.15322729   1      16  H
    5.15224344    7.75155493    0.35689047   2      17  O
    5.41834104    7.93550762   -0.58265379   1      18  H

outcell: Unit cell vectors (Ang):
       14.215213    0.000000    0.000000
        0.000000   14.093032    0.000000
        0.000000    0.000000   14.526675

outcell: Cell vector modules (Ang)   :   14.215213   14.093032   14.526675
outcell: Cell angles (23,13,12) (deg):     90.0000     90.0000     90.0000
outcell: Cell volume (Ang**3)        :   2910.2078
<dSpData1D:S at geom step 243
  <sparsity:sparsity for geom step 243
    nrows_g=154 nrows=8 sparsity=.0497 nnzs=1178, refcount: 7>
  <dData1D:(new from dSpData1D) n=1178, refcount: 1>
refcount: 1>
new_DM -- step:   244
Re-using DM from previous geometries...
Number of DMs in history: 1
 DM extrapolation coefficients:
1   1.00000
New DM after history re-use:
<dSpData2D:SpM extrapolated using coords
  <sparsity:sparsity for geom step 243
    nrows_g=154 nrows=8 sparsity=.0497 nnzs=1178, refcount: 9>
  <dData2D:(temp array for extrapolation) n=1178 m=2, refcount: 1>
refcount: 1>
     spin moment: S , {S} =    0.00000       0.0       0.0   0.00000
No. of atoms with KB's overlaping orbs in proc 0. Max # of overlaps:      17     138
New grid distribution:   1
           1       1:   80    1:   20    1:   11
           2       1:   80    1:   20   12:   21
           3       1:   80    1:   20   22:   31
           4       1:   80    1:   20   32:   41
           5       1:   80    1:   20   42:   51
           6       1:   80    1:   20   52:   61
           7       1:   80    1:   20   62:   71
           8       1:   80    1:   20   72:   81
           9       1:   80   21:   40    1:   11
          10       1:   80   21:   40   12:   21
          11       1:   80   21:   40   22:   31
          12       1:   80   21:   40   32:   41
          13       1:   80   21:   40   42:   51
          14       1:   80   21:   40   52:   61
          15       1:   80   21:   40   62:   71
          16       1:   80   21:   40   72:   81
          17       1:   80   41:   60    1:   11
          18       1:   80   41:   60   12:   21
          19       1:   80   41:   60   22:   31
          20       1:   80   41:   60   32:   41
          21       1:   80   41:   60   42:   51
          22       1:   80   41:   60   52:   61
          23       1:   80   41:   60   62:   71
          24       1:   80   41:   60   72:   81
          25       1:   80   61:   80    1:   11
          26       1:   80   61:   80   12:   21
          27       1:   80   61:   80   22:   31
          28       1:   80   61:   80   32:   41
          29       1:   80   61:   80   42:   51
          30       1:   80   61:   80   52:   61
          31       1:   80   61:   80   62:   71
          32       1:   80   61:   80   72:   81

InitMesh: MESH =   160 x   160 x   162 =     4147200
InitMesh: (bp) =    80 x    80 x    81 =      518400
InitMesh: Mesh cutoff (required, used) =   340.000   343.716 Ry
ExtMesh (bp) on 0 =   184 x   124 x   111 =     2532576
New grid distribution:   2
           1      18:   80    1:   32    8:   15
           2       1:   17    1:   31    1:    8
           3      17:   80    1:   32   16:   69
           4      18:   80   33:   39    1:    7
           5       1:   16    1:   32   16:   63
           6       1:   17   48:   80   16:   31
           7       1:   17    1:   31    9:   15
           8       1:   16   31:   39   64:   81
           9      18:   80    1:   32    1:    7
          10      18:   80   40:   46    9:   15
          11      17:   80   33:   39   16:   69
          12       1:   16   33:   39   16:   63
          13      18:   80   33:   39    8:   15
          14       1:   17   32:   39    1:    8
          15       1:   16    1:   30   64:   81
          16      17:   80    1:   31   70:   81
          17       1:   17   48:   80    1:    8
          18      18:   80   47:   80    9:   15
          19       1:   17   40:   47   16:   31
          20       1:   17   47:   80   32:   81
          21      18:   80   40:   47   16:   65
          22       1:   17   40:   46   32:   81
          23       1:   17   40:   47    1:    8
          24      18:   80   40:   46   66:   81
          25      18:   80   47:   80    1:    8
          26       1:   17   48:   80    9:   15
          27      18:   80   48:   80   16:   65
          28       1:   17   32:   39    9:   15
          29      17:   80   32:   39   70:   81
          30      18:   80   40:   46    1:    8
          31       1:   17   40:   47    9:   15
          32      18:   80   47:   80   66:   81
New grid distribution:   3
           1      25:   80    1:   25    1:   11
           2       1:   24    1:   24   13:   27
           3       1:   24   25:   40   13:   27
           4      23:   80    1:   32   28:   69
           5       1:   22    1:   30   28:   66
           6      30:   80   41:   51   13:   27
           7       1:   22    1:   21   67:   81
           8      23:   80    1:   26   70:   81
           9       1:   24    1:   21    1:   12
          10      25:   80    1:   30   12:   27
          11      25:   80   31:   40   12:   27
          12      23:   80   33:   39   28:   69
          13      25:   80   40:   47   28:   69
          14       1:   29   56:   80    1:   13
          15       1:   22   22:   39   67:   81
          16      23:   80   27:   39   70:   81
          17       1:   29   41:   54   14:   27
          18      30:   80   52:   80   13:   27
          19       1:   29   55:   80   14:   27
          20       1:   24   40:   49   28:   62
          21      25:   80   26:   40    1:   11
          22       1:   22   31:   39   28:   66
          23       1:   24   40:   52   63:   81
          24      25:   80   51:   80   70:   81
          25      30:   80   53:   80    1:   12
          26      25:   80   40:   50   70:   81
          27       1:   29   41:   55    1:   13
          28      25:   80   48:   80   28:   69
          29       1:   24   50:   80   28:   62
          30      30:   80   41:   52    1:   12
          31       1:   24   22:   40    1:   12
          32       1:   24   53:   80   63:   81
Setting up quadratic distribution...
ExtMesh (bp) on 0 =   167 x   136 x   108 =     2452896
PhiOnMesh: Number of (b)points on node 0 =                16128
PhiOnMesh: nlist on node 0 =               173532

        iscf     Eharris(eV)        E_KS(eV)     FreeEng(eV)     dDmax    Ef(eV) dHmax(eV)
   scf:    1    -2002.543357    -2002.542907    -2002.542907  0.000057 -5.087569  0.000893
     spin moment: S , {S} =    0.00000       0.0       0.0   0.00000

SCF Convergence by DM+H criterion
max |DM_out - DM_in|         :     0.0000566259
max |H_out - H_in|      (eV) :     0.0008933511
SCF cycle converged after 1 iterations

Using DM_out to compute the final energy and forces
No. of atoms with KB's overlaping orbs in proc 0. Max # of overlaps:      17     138

siesta: E_KS(eV) =            -2002.5429
     spin moment: S , {S} =    0.00000       0.0       0.0   0.00000

siesta: Atomic forces (eV/Ang):
     1    0.000817   -0.000968    0.001789
     2    0.000141   -0.000471   -0.000769
     3   -0.000633    0.001681   -0.000501
     4   -0.000525   -0.000255    0.000502
     5    0.001123   -0.001493   -0.000101
     6    0.000890   -0.000333    0.000211
     7    0.000577    0.001787    0.000259
     8   -0.001598   -0.000106   -0.001176
     9    0.000331   -0.001692    0.000587
    10    0.000367    0.000061   -0.000907
    11    0.001076   -0.000665   -0.001809
    12    0.000781    0.000338   -0.000183
    13   -0.000538   -0.000106   -0.000237
    14   -0.000791    0.000160   -0.000215
    15    0.000859    0.004996   -0.001726
    16   -0.000519   -0.000452    0.001766
    17   -0.000028    0.000567   -0.003978
    18    0.000063    0.001030    0.001842
   Tot    0.002393    0.004081   -0.004646
   Max    0.004996
   Res    0.001259    sqrt( Sum f_i^2 / 3N )
   Max    0.004996    constrained

Stress tensor Voigt[x,y,z,yz,xz,xy] (kbar):       -1.04       -0.51       -1.07        0.07       -0.03       -0.05
(Free)E + p*V (eV/cell)    -2000.9563
Target enthalpy (eV/cell)    -2002.5429

mulliken: Atomic and Orbital Populations:

mulliken: Spin UP

[...]

mulliken: Spin DOWN

Species: H
Atom  Qatom  Qorb
   1  0.365   0.198   0.105   0.023   0.025   0.014
   4  0.601   0.536   0.042   0.009   0.005   0.009
   5  0.600   0.535   0.042   0.013   0.005   0.006
   7  0.600   0.534   0.042   0.002   0.012   0.010
  10  0.601   0.536   0.042   0.010   0.003   0.010
  11  0.599   0.534   0.043   0.009   0.002   0.011
  13  0.599   0.530   0.043   0.015   0.007   0.004
  15  0.598   0.525   0.042   0.008   0.009   0.014
  16  0.610   0.541   0.039   0.007   0.013   0.009
  18  0.372   0.201   0.105   0.029   0.022   0.016

[...]

Species: Si
Atom  Qatom  Qorb
               3Pdxy   3Pdyz   3Pdz2   3Pdxz   3Pdx2-y2
   3  1.661   0.229   0.239   0.157   0.125   0.191   0.190   0.135   0.153
              0.039   0.066   0.047   0.058   0.032
   6  1.758   0.259   0.229   0.155   0.171   0.204   0.108   0.187   0.174
              0.074   0.060   0.048   0.044   0.045
   9  1.662   0.226   0.239   0.203   0.163   0.109   0.163   0.099   0.214
              0.062   0.056   0.056   0.047   0.025
  12  1.769   0.249   0.230   0.133   0.295   0.115   0.210   0.123   0.126
              0.090   0.032   0.045   0.059   0.062
  14  1.783   0.286   0.220   0.312   0.167   0.134   0.116   0.184   0.208
              0.026   0.031   0.036   0.032   0.031

mulliken: Qtot =       24.000

outcoor: Relaxed atomic coordinates (Ang):
   -0.70874451    8.71626483    1.79121898   1       1  H
   -0.00115591    8.01754401    1.70514593   2       2  O
    0.83250491    7.73127101    3.21678575   3       3  Si
   -0.08903545    6.95761847    4.12722085   1       4  H
    1.15514124    9.07214172    3.85673934   1       5  H
    2.86934562    6.70590658    2.60751977   3       6  Si
    3.82183330    6.78187320    3.76816827   1       7  H
    2.75348308    5.02206910    2.15005908   2       8  O
    2.28589231    4.52354032    0.52588330   3       9  Si
    3.28915034    3.52335398    0.00101543   1      10  H
    0.97532570    3.78759311    0.62834917   1      11  H
    3.43865634    7.88699958    0.65210818   3      12  Si
    3.02000676    9.33777727    0.71693917   1      13  H
    2.19970943    6.49377566   -0.79626550   3      14  Si
    0.78441968    6.96309115   -0.98678890   1      15  H
    2.84435510    6.34065937   -2.15322729   1      16  H
    5.15224344    7.75155493    0.35689047   2      17  O
    5.41834104    7.93550762   -0.58265379   1      18  H

coxmol: Writing XMOL coordinates into file ribosa.xyz

siesta: Eigenvalues (eV):
  ik is       eps
   1  1  -24.7159  -24.6933  -24.0583  -14.6720  -14.2695  -13.6107  -12.7563  -11.9836  -11.4935  -11.1257
          -9.8793   -9.7881   -9.5409   -9.2163   -8.9063   -8.6634   -8.5419   -8.2775   -7.9196   -7.3951
   -7.2761   -7.1960   -6.6582   -6.2352   -2.2533   -1.9570   -1.2410   -1.1319   -0.7802   -0.3134
    0.0576    0.2784    0.4128    0.6892    0.9401    1.1765    1.3228    1.4762    1.6604    1.8351
    2.0828    2.7675    2.9506    3.2491    3.6549    3.9805    4.2622    4.9505    5.0995    5.3978
    5.6252    5.7798    6.0167    6.2929    6.5257    6.9543    7.2666    7.5341    7.8909    8.3976
    8.8570    8.9457    9.4819    9.7171    9.9206   10.1701   10.4392   10.8295   10.9222   11.3970
   11.9233   12.2481   12.5474   12.9415   13.3595   13.4603   13.8762   14.8111   15.2182   15.4824
   15.8532   16.1364   16.3089   16.3937   16.8433   17.2154   17.4677   17.8677   18.6012   18.8888
   19.4134   20.1014   20.2844   20.4141   21.1496   21.5861   21.7347   22.0612   22.3595   22.5067
   22.8854   23.3829   23.7098   23.8728   24.3460   24.7594   25.1324   25.5408   25.8213   26.3660
   26.8759   27.4073   28.1488   28.6941   29.4958   30.2192   31.0683   33.7412   36.5151   36.8765
   37.0352   38.6847   39.2535   40.2121   41.2818   44.9557   46.6918   47.4286   47.9812   48.7889
   49.1954   49.8291   50.7335   51.2395   52.2821   53.1611   54.0843   55.0473   56.8198   57.1557
   58.6827   59.1417   60.0821   61.2176   62.0211   62.4883   62.7533   66.5565   80.7817   90.4401
   91.9896   94.2282   98.8552  101.5031
   1  2  -24.7159  -24.6933  -24.0583  -14.6720  -14.2695  -13.6107  -12.7563  -11.9836  -11.4935  -11.1257
          -9.8793   -9.7881   -9.5409   -9.2163   -8.9063   -8.6634   -8.5419   -8.2775   -7.9196   -7.3951
   -7.2761   -7.1960   -6.6582   -6.2352   -2.2533   -1.9570   -1.2410   -1.1319   -0.7802   -0.3134
    0.0576    0.2784    0.4128    0.6892    0.9401    1.1765    1.3228    1.4762    1.6604    1.8351
    2.0828    2.7675    2.9506    3.2491    3.6549    3.9805    4.2622    4.9505    5.0995    5.3978
    5.6252    5.7798    6.0167    6.2929    6.5257    6.9543    7.2666    7.5341    7.8909    8.3976
    8.8570    8.9457    9.4819    9.7171    9.9206   10.1701   10.4392   10.8295   10.9222   11.3970
   11.9233   12.2481   12.5474   12.9415   13.3595   13.4603   13.8762   14.8111   15.2182   15.4824
   15.8532   16.1364   16.3089   16.3937   16.8433   17.2154   17.4677   17.8677   18.6012   18.8888
   19.4134   20.1014   20.2844   20.4141   21.1496   21.5861   21.7347   22.0612   22.3595   22.5067
   22.8854   23.3829   23.7098   23.8728   24.3460   24.7594   25.1324   25.5408   25.8213   26.3660
   26.8759   27.4073   28.1488   28.6941   29.4958   30.2192   31.0683   33.7412   36.5151   36.8765
   37.0352   38.6847   39.2535   40.2121   41.2818   44.9557   46.6918   47.4286   47.9812   48.7889
   49.1954   49.8291   50.7335   51.2395   52.2821   53.1611   54.0843   55.0473   56.8198   57.1557
   58.6827   59.1417   60.0821   61.2176   62.0211   62.4883   62.7533   66.5565   80.7817   90.4401
   91.9896   94.2282   98.8552  101.5031
siesta: Fermi energy =      -5.087569 eV

siesta: Program's energy decomposition (eV):
siesta: Ebs     =      -557.738384
siesta: Eions   =      1993.464565
siesta: Ena     =       122.923862
siesta: Ekin    =      1459.351967
siesta: Enl     =     -1042.726864
siesta: Eso     =         0.000000
siesta: Edftu   =         0.000000
siesta: DEna    =       -12.652205
siesta: DUscf   =         6.880369
siesta: DUext   =         0.000000
siesta: Exc     =      -542.855471
siesta: eta*DQ  =         0.000000
siesta: Emadel  =         0.000000
siesta: Emeta   =         0.000000
siesta: Emolmec =         0.000000
siesta: Ekinion =         0.000000
siesta: Eharris =     -2002.543357
siesta: Etot    =     -2002.542907
siesta: FreeEng =     -2002.542907

siesta: Final energy (eV):
siesta:  Band Struct. =    -557.738384
siesta:       Kinetic =    1459.351967
siesta:       Hartree =    3285.398357
siesta:       Edftu   =       0.000000
siesta:       Eso     =       0.000000
siesta:    Ext. field =       0.000000
siesta:   Exch.-corr. =    -542.855471
siesta:  Ion-electron =   -7884.105925
siesta:       Ion-ion =    1679.668165
siesta:       Ekinion =       0.000000
siesta:         Total =   -2002.542907
siesta:         Fermi =      -5.087569

siesta: Stress tensor (static) (eV/Ang**3):
siesta:    -0.000648   -0.000028   -0.000017
siesta:    -0.000028   -0.000319    0.000045
siesta:    -0.000017    0.000045   -0.000669

siesta: Cell volume =       2910.207843 Ang**3

siesta: Pressure (static):
siesta:                Solid            Molecule  Units
siesta:           0.00000594          0.00000594  Ry/Bohr**3
siesta:           0.00054520          0.00054497  eV/Ang**3
siesta:           0.87352027          0.87314293  kBar
(Free)E+ p_basis*V_orbitals  =       -1990.900418
(Free)Eharris+ p_basis*V_orbitals  =       -1990.900868
     spin moment: S , {S} =    0.00000       0.0       0.0   0.00000

siesta: Electric dipole (a.u.)  =   -0.411170    0.716298   -0.408538
siesta: Electric dipole (Debye) =   -1.045090    1.820650   -1.038399

cite: Please see "ribosa.bib" for an exhaustive BiBTeX file.
cite: Please clearly indicate Siesta version in published work: v4.1.5-1-g384057250
cite: This calculation has made use of the following articles
cite: which are encouraged to be cited in a published work.
        Primary SIESTA paper
          DOI: www.doi.org/10.1088/0953-8984/14/11/302

WARNING: alloc-realloc-dealloc name mismatch
         Name: atomlist isa
         Node:     0
         Subsequent mismatches will not be reported
>> End of run:  24-FEB-2022  14:34:44
Job completed