>> Start of run:  22-MAY-2023   9:28:43

reinit: Reading from standard input
reinit: Dumped input in INPUT_TMP.26569
************************** Dump of input data file ****************************
SystemLabel      AT
NumberOfAtoms    30
NumberOfSpecies  4
%block ChemicalSpeciesLabel
    1    1  H
    2    7  N
    3   14  Si
    4    8  O
%endblock ChemicalSpeciesLabel
# Single point calculation
MD.TypeOfRun                CG
MD.Steps                    0
SCF.MustConverge            F # In case it does not. There can be 2 very close atoms
AtomicCoordinatesFormat NotScaledCartesianAng
%block AtomicCoordinatesAndAtomicSpecies
2.582377650    -5.776830440   0.000000000       1
1.654759240    -5.269361980   0.000000000       2
0.063128840    -6.101704590   0.000000000       3
0.119223240    -7.596849500   0.000000000       1
-1.376892050   -5.182603740   0.000000000       2
-0.824371900   -3.460866440   0.000000000       3
-1.170571480   -1.270002100   0.000000000       3
-2.706933680   -0.417515780   0.000000000       2
-2.754569660   0.634858620    0.000000000       1
-3.637675640   -0.909967860   0.000000000       1
0.218091790    -0.234193970   0.000000000       2
1.872004100    -0.697162300   0.000000000       3
2.828001130    0.461464770    0.000000000       1
2.648150080    -2.255024470   0.000000000       2
1.391921380    -3.454727220   0.000000000       3
1.912434492    3.978467813    0.000000000       2
0.585062972    5.188672113    0.000000000       3
1.225064242    6.549990353    0.000000000       1
-1.500682968   4.518140763    0.000000000       3
-3.530245568   5.648256953    0.000000000       3
-3.376009798   6.808487163    0.940305280       1
-4.516180288   4.626336333    0.512613700       1
-3.946460528   6.124482803    -1.366678340      1
-1.434187548   2.244164143    0.000000000       3
-2.473236278   1.051104643    0.000000000       4
0.222804032    1.610188953    0.000000000       2
0.204786662    0.547744123    0.000000000       1
1.846407102    2.207259163    0.000000000       3
3.041423272    1.192833963    0.000000000       4
2.912471862    4.323974913    0.000000000       1
%endblock AtomicCoordinatesAndAtomicSpecies
%include ../../../Defaults.fdf
************************** End of input data file *****************************

reinit: -----------------------------------------------------------------------
reinit: System Name:
reinit: -----------------------------------------------------------------------
reinit: System Label: AT
reinit: -----------------------------------------------------------------------

initatom: Reading input for the pseudopotentials and atomic orbitals ----------
Species number:   1 Atomic number:    1 Label: H
Species number:   2 Atomic number:    7 Label: N
Species number:   3 Atomic number:   14 Label: Si
Species number:   4 Atomic number:    8 Label: O

Ground state valence configuration:   1s01
Reading pseudopotential information in formatted form from H.psf

Pseudopotential generated from a relativistic atomic calculation

Valence configuration for pseudopotential generation:
1s( 1.00) rc: 0.01
2p( 0.00) rc: 0.60
3d( 0.00) rc: 1.99
4f( 0.00) rc: 2.49
Ground state valence configuration:   2s02  2p03
Reading pseudopotential information in formatted form from N.psf

[...]

Valence configuration for pseudopotential generation:
3s( 2.00) rc: 1.67
3p( 2.00) rc: 2.04
3d( 0.00) rc: 2.89
4f( 0.00) rc: 2.49
Ground state valence configuration:   2s02  2p04
Reading pseudopotential information in formatted form from O.psf

Pseudopotential generated from a relativistic atomic calculation

Valence configuration for pseudopotential generation:
2s( 2.00) rc: 0.45
2p( 4.00) rc: 0.92
3d( 0.00) rc: 2.24
4f( 0.00) rc: 0.25
For H, standard SIESTA heuristics set lmxkb to 2
 (one more than the basis l, including polarization orbitals).
Use PS.lmax or PS.KBprojectors blocks to override.
For N, standard SIESTA heuristics set lmxkb to 3
 (one more than the basis l, including polarization orbitals).
Use PS.lmax or PS.KBprojectors blocks to override.
For Si, standard SIESTA heuristics set lmxkb to 3
 (one more than the basis l, including polarization orbitals).
Use PS.lmax or PS.KBprojectors blocks to override.
For O, standard SIESTA heuristics set lmxkb to 3
 (one more than the basis l, including polarization orbitals).
Use PS.lmax or PS.KBprojectors blocks to override.

<basis_specs>
H                    Z=   1    Mass=  1.0100        Charge= 0.17977+309
Lmxo=0 Lmxkb= 2    BasisType=split      Semic=F
L=0  Nsemic=0  Cnfigmx=1
          i=1  nzeta=2  polorb=1  (1s)
            splnorm:   0.62000
               vcte:    0.0000
               rinn:    0.0000
               qcoe:    0.0000
               qyuk:    0.0000
               qwid:   0.10000E-01
                rcs:    0.0000      0.0000
            lambdas:    1.0000      1.0000
L=0  Nkbl=1  erefs: 0.17977+309
L=1  Nkbl=1  erefs: 0.17977+309
L=2  Nkbl=1  erefs: 0.17977+309
</basis_specs>

atom: Called for H                     (Z =   1)

read_vps: Pseudopotential generation method:
read_vps: ATM4.2.7  Troullier-Martins
Valence charge for ps generation:    1.00000

xc_check: Exchange-correlation functional:
xc_check: GGA Perdew, Burke & Ernzerhof 1996
V l=0 = -2*Zval/r beyond r=  0.0098
V l=1 = -2*Zval/r beyond r=  0.5817
V l=2 = -2*Zval/r beyond r=  1.9372
All V_l potentials equal beyond r=  1.9372
This should be close to max(r_c) in ps generation
All pots = -2*Zval/r beyond r=  1.9372

VLOCAL1: 99.0% of the norm of Vloc inside     11.567 Ry
VLOCAL1: 99.9% of the norm of Vloc inside     26.362 Ry
atom: Maximum radius for 4*pi*r*r*local-pseudopot. charge    2.25106
atom: Maximum radius for r*vlocal+2*Zval:    1.91306
GHOST: No ghost state for L =  0
GHOST: No ghost state for L =  1
GHOST: No ghost state for L =  2

KBgen: Kleinman-Bylander projectors:
   l= 0   rc=  2.036604   el= -0.477180   Ekb= -6.081590   kbcos= -0.277285
   l= 1   rc=  2.195416   el=  0.001076   Ekb= -0.926943   kbcos= -0.034643
   l= 2   rc=  2.251056   el=  0.002010   Ekb= -0.130941   kbcos= -0.009788

KBgen: Total number of Kleinman-Bylander projectors:    9
atom: -------------------------------------------------------------------------

atom: SANKEY-TYPE ORBITALS:
atom: Selected multiple-zeta basis: split

SPLIT: Orbitals with angular momentum L= 0

SPLIT: Basis orbitals for state 1s

SPLIT: PAO cut-off radius determined from an
SPLIT: energy shift=  0.002000 Ry

   izeta = 1
                 lambda =    1.000000
                     rc =    6.518340
                 energy =   -0.475305
                kinetic =    0.912139
    potential(screened) =   -1.387444
       potential(ionic) =   -1.907295

   izeta = 2
                 rmatch =    2.141150
              splitnorm =    0.620000
                 energy =    0.566467
                kinetic =    3.772856
    potential(screened) =   -3.206389
       potential(ionic) =   -3.759093

POLgen: Perturbative polarization orbital with L=  1

POLgen: Polarization orbital for state 1s

   izeta = 1
                     rc =    6.518340
                 energy =    0.533861
                kinetic =    1.121086
    potential(screened) =   -0.587225
       potential(ionic) =   -1.053027
atom: Total number of Sankey-type orbitals:  5

atm_pop: Valence configuration (for local Pseudopot. screening):
 1s( 1.00)
Vna: chval, zval:    1.00000   1.00000

Vna:  Cut-off radius for the neutral-atom potential:   6.518340

atom: _________________________________________________________________________

<basis_specs>
N                    Z=   7    Mass=  14.010        Charge= 0.17977+309
Lmxo=1 Lmxkb= 3    BasisType=split      Semic=F
L=0  Nsemic=0  Cnfigmx=2
          i=1  nzeta=2  polorb=0  (2s)
            splnorm:   0.28000
               vcte:    0.0000
               rinn:    0.0000
               qcoe:    0.0000
               qyuk:    0.0000
               qwid:   0.10000E-01
                rcs:    0.0000      0.0000
            lambdas:    1.0000      1.0000
L=1  Nsemic=0  Cnfigmx=2
          i=1  nzeta=2  polorb=1  (2p)
            splnorm:   0.28000
               vcte:    0.0000
               rinn:    0.0000
               qcoe:    0.0000
               qyuk:    0.0000
               qwid:   0.10000E-01
                rcs:    0.0000      0.0000
            lambdas:    1.0000      1.0000
L=0  Nkbl=1  erefs: 0.17977+309
L=1  Nkbl=1  erefs: 0.17977+309
L=2  Nkbl=1  erefs: 0.17977+309
L=3  Nkbl=1  erefs: 0.17977+309
</basis_specs>

[...]

KBgen: Kleinman-Bylander projectors:
   l= 0   rc=  3.417763   el= -1.365098   Ekb= -4.433130   kbcos= -0.707855
   l= 1   rc=  3.375302   el= -0.521201   Ekb=-13.264039   kbcos= -0.535594
   l= 2   rc=  3.872880   el=  0.001991   Ekb= -0.641094   kbcos= -0.062456
   l= 3   rc=  3.970931   el=  0.003093   Ekb= -0.474517   kbcos= -0.018236

[...]

SPLIT: Basis orbitals for state 2p

[...]

POLgen: Polarization orbital for state 2p

[...]

atm_pop: Valence configuration (for local Pseudopot. screening):
 2s( 2.00)
 2p( 3.00)
Vna: chval, zval:    5.00000   5.00000

[...]

KBgen: Kleinman-Bylander projectors:
   l= 0   rc=  3.075247   el= -0.794092   Ekb=  5.879390   kbcos=  0.167461
   l= 1   rc=  3.153101   el= -0.300068   Ekb=  2.642817   kbcos=  0.058301
   l= 2   rc=  3.273594   el=  0.001958   Ekb= -1.185135   kbcos= -0.104411
   l= 3   rc=  3.232927   el=  0.003046   Ekb= -0.497174   kbcos= -0.015889

[...]

<basis_specs>
O                    Z=   8    Mass=  16.000        Charge= 0.17977+309
Lmxo=1 Lmxkb= 3    BasisType=split      Semic=F
L=0  Nsemic=0  Cnfigmx=2
          i=1  nzeta=2  polorb=0  (2s)
            splnorm:   0.28000
               vcte:    0.0000
               rinn:    0.0000
               qcoe:    0.0000
               qyuk:    0.0000
               qwid:   0.10000E-01
                rcs:    0.0000      0.0000
            lambdas:    1.0000      1.0000
L=1  Nsemic=0  Cnfigmx=2
          i=1  nzeta=2  polorb=1  (2p)
            splnorm:   0.28000
               vcte:    0.0000
               rinn:    0.0000
               qcoe:    0.0000
               qyuk:    0.0000
               qwid:   0.10000E-01
                rcs:    0.0000      0.0000
            lambdas:    1.0000      1.0000
L=0  Nkbl=1  erefs: 0.17977+309
L=1  Nkbl=1  erefs: 0.17977+309
L=2  Nkbl=1  erefs: 0.17977+309
L=3  Nkbl=1  erefs: 0.17977+309
</basis_specs>

atom: Called for O                     (Z =   8)

read_vps: Pseudopotential generation method:
read_vps: ATM4.2.7  Troullier-Martins
Valence charge for ps generation:    6.00000

xc_check: Exchange-correlation functional:
xc_check: GGA Perdew, Burke & Ernzerhof 1996
V l=0 = -2*Zval/r beyond r=  1.1000
V l=1 = -2*Zval/r beyond r=  1.1000
V l=2 = -2*Zval/r beyond r=  2.2154
V l=3 = -2*Zval/r beyond r=  1.1000
All V_l potentials equal beyond r=  2.2154
This should be close to max(r_c) in ps generation
All pots = -2*Zval/r beyond r=  2.2154

VLOCAL1: 99.0% of the norm of Vloc inside      8.845 Ry
VLOCAL1: 99.9% of the norm of Vloc inside     20.157 Ry
atom: Maximum radius for 4*pi*r*r*local-pseudopot. charge    2.67231
atom: Maximum radius for r*vlocal+2*Zval:    2.32897
GHOST: No ghost state for L =  0
[...]
     spin moment: S , {S} =    0.00001   0.00000  -0.00000   0.00001
   scf:   47    -3946.355108    -3946.355108    -3946.358558  0.000030 -3.558100  0.000012
     spin moment: S , {S} =    0.00001  -0.00000  -0.00000   0.00001
   scf:   48    -3946.355108    -3946.355108    -3946.358558  0.000006 -3.558100  0.000010
     spin moment: S , {S} =    0.00000  -0.00000  -0.00000   0.00000
mix: Pulay -- resetting history
   scf:   49    -3946.355108    -3946.355108    -3946.358558  0.000007 -3.558100  0.000005
     spin moment: S , {S} =    0.00000  -0.00000  -0.00000   0.00000
   scf:   50    -3946.355108    -3946.355108    -3946.358558  0.000002 -3.558100  0.000003
     spin moment: S , {S} =    0.00000  -0.00000  -0.00000   0.00000
   scf:   51    -3946.355108    -3946.355108    -3946.358558  0.000002 -3.558100  0.000002
     spin moment: S , {S} =    0.00000  -0.00000  -0.00000   0.00000
   scf:   52    -3946.355108    -3946.355108    -3946.358558  0.000000 -3.558100  0.000001
     spin moment: S , {S} =    0.00000  -0.00000  -0.00000   0.00000
   scf:   53    -3946.355108    -3946.355108    -3946.358558  0.000001 -3.558100  0.000001
     spin moment: S , {S} =    0.00000  -0.00000  -0.00000  -0.00000
   scf:   54    -3946.355108    -3946.355108    -3946.358558  0.000001 -3.558100  0.000001
     spin moment: S , {S} =    0.00000  -0.00000  -0.00000  -0.00000

SCF Convergence by DM+H criterion
max |DM_out - DM_in|         :     0.0000008568
max |H_out - H_in|      (eV) :     0.0000008334
SCF cycle converged after 54 iterations

Using DM_out to compute the final energy and forces
No. of atoms with KB's overlaping orbs in proc 0. Max # of overlaps:      24     230

siesta: E_KS(eV) =            -3946.3551

siesta: E_KS - E_eggbox =     -3946.3551
     spin moment: S , {S} =    0.00000  -0.00000  -0.00000  -0.00000

siesta: Atomic forces (eV/Ang):
     1    0.002911   -0.029906    0.000173
     2   -0.095348   -0.315618    0.000749
     3    0.135666    0.077827   -0.000271
     4   -0.046833   -0.046713    0.000120
     5   -0.033250   -0.041955   -0.000148
     6    0.090998    0.111823    0.001792
     7   -2.379392   -1.781618    0.002497
     8   -1.439830  -36.783407   -0.007112
     9 -106.783809 -141.419077    0.006088
    10   -0.373402   -1.101130    0.001720
    11   -1.213375  -41.753611    0.003318
    12   -1.727574   -7.449610   -0.000285
    13   -5.307949  -24.685902   -0.000100
    14   -0.305607   -0.999496    0.000290
    15    0.365831   -0.111154   -0.002880
    16    1.303010   -0.616598    0.018732
    17   -0.662401    0.362759   -0.008839
    18    0.302403    0.109461   -0.023130
    19    0.136401   -0.071524   -0.046038
    20    0.251819    0.104767    0.003895
    21   -0.183651    0.159054    0.096998
    22   -0.044189   -0.008694    0.031832
    23   -0.060995    0.068290   -0.057524
    24    2.807996    4.116106   -0.017638
    25  110.694219  174.723173   -0.004820
    26    0.375206   20.702967    0.007265
    27   -1.438301   20.649019   -0.003437
    28   -5.497407    3.764926   -0.008440
    29   16.281169   33.557823    0.002717
    30    0.095668    0.598067    0.004042
   Tot    5.249983    1.890049    0.001566
   Max  174.723173
   Res   29.872328    sqrt( Sum f_i^2 / 3N )
   Max  174.723173    constrained

Stress tensor Voigt[x,y,z,yz,xz,xy] (kbar):      -19.91      -94.86       -0.25       -0.05        0.06      -26.59
(Free)E + p*V (eV/cell)    -3855.7119
Target enthalpy (eV/cell)    -3946.3586

mulliken: Atomic and Orbital Populations:

Species: H

Atom      Orb        Charge      Spin       Svec
    1  3 2Ppy       0.02879   0.00000      0.000  -0.000   0.000
    1  4 2Ppz       0.03988   0.00000     -0.000  -0.000  -0.000
    1  5 2Ppx       0.02526   0.00000      0.000   0.000  -0.000
    1     Total     0.79651   0.00000      0.000   0.000   0.000

    4  3 2Ppy       0.03931   0.00000     -0.000  -0.000  -0.000
    4  4 2Ppz       0.01905   0.00000      0.000   0.000   0.000
    4  5 2Ppx       0.01376   0.00000     -0.000   0.000  -0.000
    4     Total     1.19059   0.00000     -0.000  -0.000  -0.000

[...]

   30  3 2Ppy       0.02940   0.00000     -0.000  -0.000   0.000
   30  4 2Ppz       0.03622   0.00000      0.000  -0.000  -0.000
   30  5 2Ppx       0.02529   0.00000     -0.000  -0.000   0.000
   30     Total     0.79149   0.00000     -0.000  -0.000  -0.000

Total              10.74772   0.00000     -0.000   0.000  -0.000

[...]

Atom      Orb        Charge      Spin       Svec
    2  9 3Pdxy      0.00715   0.00000      0.000   0.000   0.000
    2 10 3Pdyz      0.00544   0.00000      0.000   0.000   0.000
    2 11 3Pdz2      0.00156   0.00000      0.000  -0.000   0.000
    2 12 3Pdxz      0.00303   0.00000      0.000   0.000   0.000
    2 13 3Pdx2-y2   0.00307   0.00000     -0.000   0.000   0.000
    2     Total     5.52130   0.00000     -0.000  -0.000  -0.000

    5  9 3Pdxy      0.00869   0.00000     -0.000  -0.000  -0.000
    5 10 3Pdyz      0.00654   0.00000      0.000   0.000   0.000
    5 11 3Pdz2      0.00193   0.00000      0.000   0.000  -0.000
    5 12 3Pdxz      0.01136   0.00000      0.000   0.000   0.000
    5 13 3Pdx2-y2   0.00934   0.00000     -0.000  -0.000  -0.000
    5     Total     5.37500   0.00000     -0.000  -0.000  -0.000

[...]

Species: O

Atom      Orb        Charge      Spin       Svec
   25  9 3Pdxy      0.01621   0.00000      0.000   0.000  -0.000
   25 10 3Pdyz      0.01982   0.00000     -0.000  -0.000  -0.000
   25 11 3Pdz2      0.00618   0.00000      0.000   0.000   0.000
   25 12 3Pdxz      0.00204   0.00000     -0.000  -0.000  -0.000
   25 13 3Pdx2-y2   0.02314   0.00000      0.000   0.000  -0.000
   25     Total     6.50604   0.00000      0.000   0.000   0.000

   29  9 3Pdxy      0.01164   0.00000      0.000  -0.000   0.000
   29 10 3Pdyz      0.00146   0.00000     -0.000  -0.000   0.000
   29 11 3Pdz2      0.00246   0.00000     -0.000   0.000   0.000
   29 12 3Pdxz      0.00815   0.00000     -0.000  -0.000  -0.000
   29 13 3Pdx2-y2   0.01078   0.00000      0.000  -0.000   0.000
   29     Total     6.31335   0.00000      0.000   0.000   0.000

Total              98.00000   0.00000     -0.000  -0.000  -0.000

siesta: Eigenvalues (eV):
ik =     1
  -33.5405  -33.5404  -29.0144  -29.0144  -24.5921  -24.5921  -22.0329  -22.0329  -20.8853  -20.8853
  -20.5815  -20.5815  -19.3502  -19.3502  -19.1970  -19.1970  -18.8215  -18.8215  -17.7812  -17.7812
  -16.9916  -16.9916  -14.7613  -14.7613  -14.4103  -14.4103  -13.9807  -13.9807  -13.8108  -13.8108
  -13.1623  -13.1623  -12.8038  -12.8038  -12.7484  -12.7484  -12.3591  -12.3591  -12.0777  -12.0777
  -11.6135  -11.6135  -11.2640  -11.2640  -11.0820  -11.0820  -10.8715  -10.8715  -10.7651  -10.7651
  -10.4307  -10.4307  -10.3473  -10.3473   -9.5002   -9.5002   -9.3054   -9.3054   -9.1716   -9.1716
   -8.9017   -8.9017   -8.7998   -8.7998   -8.6546   -8.6546   -8.4586   -8.4586   -8.4412   -8.4412
   -8.1444   -8.1444   -8.0099   -8.0099   -7.8257   -7.8257   -7.1640   -7.1640   -7.1131   -7.1131
   -6.5629   -6.5629   -6.1925   -6.1925   -5.7600   -5.7600   -5.6861   -5.6861   -5.5506   -5.5506
   -5.0244   -5.0244   -4.4497   -4.4497   -4.1865   -4.1865   -3.6931   -3.6931   -3.4231   -3.4231
   -2.7509   -2.7509   -2.5237   -2.5237   -2.3764   -2.3764   -2.1676   -2.1676   -2.0859   -2.0859
   -1.7760   -1.7760   -1.7296   -1.7296   -1.5457   -1.5457   -1.3680   -1.3680   -1.2138   -1.2138
   -1.0810   -1.0810   -0.6150   -0.6150   -0.1578   -0.1578   -0.1101   -0.1101   -0.0455   -0.0455
    0.0466    0.0466    0.3157    0.3157    0.4558    0.4558    0.5303    0.5303    0.5809    0.5809
    0.8422    0.8422    1.0459    1.0459    1.2293    1.2293    1.3521    1.3521    1.5141    1.5141
    1.7095    1.7095    1.8365    1.8365    2.1540    2.1540    2.3549    2.3549    2.6138    2.6139
    2.7109    2.7109    2.8312    2.8312    2.8721    2.8721    3.0016    3.0016    3.1378    3.1378
    3.2439    3.2439    3.4375    3.4375    3.6579    3.6579    3.8664    3.8664    4.0086    4.0086
    4.1028    4.1028    4.2389    4.2389    4.6353    4.6353    4.6787    4.6787    4.7765    4.7765
    4.9361    4.9361    5.1630    5.1630    5.2650    5.2650    5.3047    5.3047    5.4857    5.4857
    5.7968    5.7968    5.8765    5.8765    5.8955    5.8955    6.0803    6.0803    6.1699    6.1699
    6.3755    6.3755    6.4524    6.4524    6.9163    6.9163    6.9645    6.9645    7.0435    7.0435
    7.2988    7.2988    7.3533    7.3533    7.4585    7.4585    7.5754    7.5754    7.7711    7.7711
    7.9285    7.9285    8.0999    8.0999    8.2423    8.2423    8.3470    8.3470    8.5893    8.5893
    8.9326    8.9326    9.0892    9.0892    9.3834    9.3834    9.4532    9.4532    9.6519    9.6519
    9.7887    9.7887    9.8746    9.8746    9.9995    9.9995   10.0543   10.0543   10.1970   10.1970
   10.5967   10.5967   10.7154   10.7154   10.8942   10.8942   11.0405   11.0405   11.1655   11.1655
   11.3302   11.3302   11.5311   11.5311   11.6887   11.6887   11.8691   11.8691   11.9506   11.9506
   12.0254   12.0254   12.1859   12.1859   12.2070   12.2070   12.5357   12.5357   13.0260   13.0260
   13.3469   13.3469   13.4022   13.4022   13.4314   13.4314   13.6759   13.6759   14.1620   14.1620
   14.2774   14.2774   14.7706   14.7706   15.0315   15.0315   15.1312   15.1312   15.6816   15.6816
   15.7514   15.7514   16.0085   16.0085   16.4165   16.4165   16.7622   16.7622   16.9836   16.9836
   17.1008   17.1008   17.1216   17.1216   18.1644   18.1644   18.3277   18.3277   18.5000   18.5000
   18.5404   18.5404   18.6773   18.6773   18.7549   18.7549   19.5605   19.5605   19.9448   19.9448
   20.1722   20.1722   20.4917   20.4917   20.8078   20.8078   21.1264   21.1264   21.2375   21.2375
   21.4233   21.4233   21.9195   21.9195   22.1244   22.1244   22.5953   22.5953   22.9915   22.9915
   23.1299   23.1299   23.3366   23.3366   24.1285   24.1285   24.4928   24.4928   24.7385   24.7385
   24.8665   24.8665   25.5104   25.5104   25.6699   25.6699   25.8561   25.8561   26.3172   26.3172
   26.8090   26.8090   27.1255   27.1255   28.0012   28.0012   28.4583   28.4583   28.7150   28.7150
   28.9447   28.9447   29.4963   29.4963   29.9852   29.9852   30.6320   30.6320   30.9678   30.9678
   31.1284   31.1284   31.5352   31.5352   31.7024   31.7024   31.9537   31.9537   32.5469   32.5469
   32.5923   32.5923   33.1149   33.1149   33.9004   33.9004   34.5112   34.5112   34.6658   34.6658
   35.4521   35.4521   36.5678   36.5678   36.6207   36.6207   36.7723   36.7723   37.3671   37.3671
   37.8677   37.8677   38.8232   38.8232   39.3355   39.3355   39.8531   39.8531   39.9979   39.9979
   40.7871   40.7871   40.8283   40.8283   41.1173   41.1173   41.6767   41.6767   41.7299   41.7299
   42.1142   42.1142   42.3305   42.3305   43.3054   43.3054   43.8125   43.8125   43.9271   43.9271
   44.7097   44.7097   45.3249   45.3249   45.3997   45.3997   45.5932   45.5932   45.7444   45.7444
   45.7664   45.7664   46.1822   46.1822   46.8493   46.8493   47.4537   47.4537   47.8450   47.8450
   47.9989   47.9989   48.5944   48.5944   48.9382   48.9382   49.3051   49.3051   49.6110   49.6110
   49.9398   49.9398   50.3442   50.3442   51.1081   51.1081   52.1354   52.1354   52.7532   52.7532
   54.3092   54.3092   54.8451   54.8451   55.3018   55.3018   55.3087   55.3087   56.4536   56.4536
   56.6735   56.6735   57.0145   57.0145   57.6366   57.6366   59.0511   59.0511   59.8934   59.8934
   61.0669   61.0669   61.0974   61.0974   62.3053   62.3053   64.6335   64.6335   64.8646   64.8646
   65.2925   65.2925   65.6556   65.6556   65.9540   65.9540   66.5922   66.5922   66.8918   66.8918
   68.3530   68.3530   69.9944   69.9944   70.9195   70.9195   71.6554   71.6554   72.7812   72.7812
   76.2243   76.2243   77.3404   77.3404   79.0327   79.0327   80.0909   80.0909   81.5576   81.5576
   84.1867   84.1867   85.6816   85.6816   90.7759   90.7759   93.0642   93.0642   94.1932   94.1932
   98.8285   98.8285  101.3751  101.3751  102.3256  102.3256  103.3474  103.3474  115.6699  115.6699
  116.4616  116.4616  123.0612  123.0612  124.7687  124.7687  127.3912  127.3912  128.4373  128.4373
  132.6134  132.6134  141.9600  141.9600  144.5567  144.5567  165.7847  165.7847  169.7702  169.7702
  187.4552  187.4552  402.7817  402.7817
siesta: Fermi energy =      -3.558100 eV

siesta: Program's energy decomposition (eV):
siesta: Ebs     =     -1191.742575
siesta: Eions   =      3553.971015
siesta: Ena     =       469.265383
siesta: Ekin    =      2885.811418
siesta: Enl     =     -2681.520337
siesta: Eso     =        -0.005110
siesta: Edftu   =         0.000000
siesta: DEna    =        38.119503
siesta: DUscf   =        16.067970
siesta: DUext   =         0.000000
siesta: Exc     =     -1120.122921
siesta: eta*DQ  =         0.000000
siesta: Emadel  =         0.000000
siesta: Emeta   =         0.000000
siesta: Emolmec =         0.000000
siesta: Ekinion =         0.000000
siesta: Eharris =     -3946.355108
siesta: Etot    =     -3946.355108
siesta: FreeEng =     -3946.358558

siesta: Final energy (eV):
siesta:  Band Struct. =   -1191.742575
siesta:       Kinetic =    2885.811418
siesta:       Hartree =    9107.172883
siesta:       Edftu   =       0.000000
siesta:       Eso     =      -0.005110
siesta:    Ext. field =       0.000000
siesta:   Exch.-corr. =   -1120.122921
siesta:  Ion-electron =  -20837.185171
siesta:       Ion-ion =    6017.973793
siesta:       Ekinion =       0.000000
siesta:         Total =   -3946.355108
siesta:         Fermi =      -3.558100

siesta: Atomic forces (eV/Ang):
siesta:      1    0.002911   -0.029906    0.000173
siesta:      2   -0.095348   -0.315618    0.000749
siesta:      3    0.135666    0.077827   -0.000271
siesta:      4   -0.046833   -0.046713    0.000120
siesta:      5   -0.033250   -0.041955   -0.000148
siesta:      6    0.090998    0.111823    0.001792
siesta:      7   -2.379392   -1.781618    0.002497
siesta:      8   -1.439830  -36.783407   -0.007112
siesta:      9 -106.783809 -141.419077    0.006088
siesta:     10   -0.373402   -1.101130    0.001720
siesta:     11   -1.213375  -41.753611    0.003318
siesta:     12   -1.727574   -7.449610   -0.000285
siesta:     13   -5.307949  -24.685902   -0.000100
siesta:     14   -0.305607   -0.999496    0.000290
siesta:     15    0.365831   -0.111154   -0.002880
siesta:     16    1.303010   -0.616598    0.018732
siesta:     17   -0.662401    0.362759   -0.008839
siesta:     18    0.302403    0.109461   -0.023130
siesta:     19    0.136401   -0.071524   -0.046038
siesta:     20    0.251819    0.104767    0.003895
siesta:     21   -0.183651    0.159054    0.096998
siesta:     22   -0.044189   -0.008694    0.031832
siesta:     23   -0.060995    0.068290   -0.057524
siesta:     24    2.807996    4.116106   -0.017638
siesta:     25  110.694219  174.723173   -0.004820
siesta:     26    0.375206   20.702967    0.007265
siesta:     27   -1.438301   20.649019   -0.003437
siesta:     28   -5.497407    3.764926   -0.008440
siesta:     29   16.281169   33.557823    0.002717
siesta:     30    0.095668    0.598067    0.004042
siesta: ----------------------------------------
siesta:    Tot    5.249983    1.890049    0.001566

siesta: Stress tensor (static) (eV/Ang**3):
siesta:    -0.012428   -0.016598    0.000039
siesta:    -0.016598   -0.059206   -0.000028
siesta:     0.000039   -0.000028   -0.000156

siesta: Cell volume =       3788.011397 Ang**3

siesta: Pressure (static):
siesta:                Solid            Molecule  Units
siesta:           0.00026063         -0.00000278  Ry/Bohr**3
siesta:           0.02392988         -0.00025505  eV/Ang**3
siesta:          38.34030637         -0.40864381  kBar
(Free)E+ p_basis*V_orbitals  =       -3925.230472
(Free)Eharris+ p_basis*V_orbitals  =       -3925.230472
     spin moment: S , {S} =    0.00000  -0.00000  -0.00000  -0.00000

siesta: Electric dipole (a.u.)  =    0.700355    1.605384   -0.015697
siesta: Electric dipole (Debye) =    1.780126    4.080483   -0.039898

cite: Please see "AT.bib" for an exhaustive BiBTeX file.
cite: Please clearly indicate Siesta version in published work: v4.1.5-1-g384057250
cite: This calculation has made use of the following articles
cite: which are encouraged to be cited in a published work.
        Primary SIESTA paper
          DOI: www.doi.org/10.1088/0953-8984/14/11/302
        Spin-orbit coupling (on-site approximation)
          DOI: www.doi.org/10.1088/0953-8984/19/19/489001

WARNING: alloc-realloc-dealloc name mismatch
         Name: atomlist isa
         Node:     0
         Subsequent mismatches will not be reported
>> End of run:  22-MAY-2023   9:31:50
Job completed