>> Start of run:  22-MAY-2023  19:16:38

reinit: Reading from standard input
reinit: Dumped input in INPUT_TMP.23711
************************** Dump of input data file ****************************
SystemLabel      GC
NumberOfAtoms    29
NumberOfSpecies  4
%block ChemicalSpeciesLabel
    1    8  O
    2    7  N
    3   14  Si
    4    1  H
%endblock ChemicalSpeciesLabel
# Single point calculation
MD.TypeOfRun                CG
MD.Steps                    0
SCF.MustConverge            F # In case it does not. There can be 2 very close atoms
AtomicCoordinatesFormat NotScaledCartesianAng
%block AtomicCoordinatesAndAtomicSpecies
0.854927710    3.902811360    0.000000000       1
-3.151486600   0.823854130    0.000000000       2
1.928518680    1.174000900    0.000000000       2
0.979899500    -1.830275890   0.000000000       2
-2.159258930   -2.028004800   0.000000000       2
3.785319770    -1.112700660   0.000000000       2
-1.345933810   0.976250250    0.000000000       3
-0.599439880   -1.096077170   0.000000000       3
0.453182890    2.350510230    0.000000000       3
2.133302030    -0.576510800   0.000000000       3
-3.516065660   -0.842056510   0.000000000       3
2.824527830    1.754723110    0.000000000       4
-4.877551690   -1.469214660   0.000000000       4
3.994952020    -2.143204000   0.000000000       4
4.620903610    -0.483666060   0.000000000       4
-2.279085180   -3.081514090   0.000000000       4
7.035325088    6.612904084    -0.000000000      3
8.904284578    7.872547714    -0.000000000      3
8.445352198    3.871165864    -0.000000000      3
10.512944918   6.377757084    -0.000000000      3
7.094855038    4.927951624    -0.000000000      2
5.405325888    7.242964314    -0.000000000      2
10.089241068   4.662256274    -0.000000000      2
9.184648278    9.342770234    -0.000000000      4
12.008356298   6.596609624    -0.000000000      4
5.160866898    8.261430264    -0.000000000      4
4.578584708    6.586116184    -0.000000000      4
8.504627958    2.288723834    -0.000000000      1
10.860896658   3.935288914    -0.000000000      4
%endblock AtomicCoordinatesAndAtomicSpecies
%include ../../../Defaults.fdf
************************** End of input data file *****************************

reinit: -----------------------------------------------------------------------
reinit: System Name:
reinit: -----------------------------------------------------------------------
reinit: System Label: GC
reinit: -----------------------------------------------------------------------

initatom: Reading input for the pseudopotentials and atomic orbitals ----------
Species number:   1 Atomic number:    8 Label: O
Species number:   2 Atomic number:    7 Label: N
Species number:   3 Atomic number:   14 Label: Si
Species number:   4 Atomic number:    1 Label: H

Ground state valence configuration:   2s02  2p04
Reading pseudopotential information in formatted form from O.psf

Pseudopotential generated from a relativistic atomic calculation

Valence configuration for pseudopotential generation:
2s( 2.00) rc: 0.45
2p( 4.00) rc: 0.92
3d( 0.00) rc: 2.24
4f( 0.00) rc: 0.25
Ground state valence configuration:   2s02  2p03
Reading pseudopotential information in formatted form from N.psf

[...]

Valence configuration for pseudopotential generation:
2s( 2.00) rc: 0.94
2p( 3.00) rc: 0.59
3d( 0.00) rc: 3.46
4f( 0.00) rc: 2.47
Ground state valence configuration:   3s02  3p02
Reading pseudopotential information in formatted form from Si.psf

[...]

Valence configuration for pseudopotential generation:
3s( 2.00) rc: 1.67
3p( 2.00) rc: 2.04
3d( 0.00) rc: 2.89
4f( 0.00) rc: 2.49
Ground state valence configuration:   1s01
Reading pseudopotential information in formatted form from H.psf

Pseudopotential generated from a relativistic atomic calculation

Valence configuration for pseudopotential generation:
1s( 1.00) rc: 0.01
2p( 0.00) rc: 0.60
3d( 0.00) rc: 1.99
4f( 0.00) rc: 2.49
For O, standard SIESTA heuristics set lmxkb to 3
 (one more than the basis l, including polarization orbitals).
Use PS.lmax or PS.KBprojectors blocks to override.
For N, standard SIESTA heuristics set lmxkb to 3
 (one more than the basis l, including polarization orbitals).
Use PS.lmax or PS.KBprojectors blocks to override.
For Si, standard SIESTA heuristics set lmxkb to 3
 (one more than the basis l, including polarization orbitals).
Use PS.lmax or PS.KBprojectors blocks to override.
For H, standard SIESTA heuristics set lmxkb to 2
 (one more than the basis l, including polarization orbitals).
Use PS.lmax or PS.KBprojectors blocks to override.

<basis_specs>
O                    Z=   8    Mass=  16.000        Charge= 0.17977+309
Lmxo=1 Lmxkb= 3    BasisType=split      Semic=F
L=0  Nsemic=0  Cnfigmx=2
          i=1  nzeta=2  polorb=0  (2s)
            splnorm:   0.28000
               vcte:    0.0000
               rinn:    0.0000
               qcoe:    0.0000
               qyuk:    0.0000
               qwid:   0.10000E-01
                rcs:    0.0000      0.0000
            lambdas:    1.0000      1.0000
L=1  Nsemic=0  Cnfigmx=2
          i=1  nzeta=2  polorb=1  (2p)
            splnorm:   0.28000
               vcte:    0.0000
               rinn:    0.0000
               qcoe:    0.0000
               qyuk:    0.0000
               qwid:   0.10000E-01
                rcs:    0.0000      0.0000
            lambdas:    1.0000      1.0000
L=0  Nkbl=1  erefs: 0.17977+309
L=1  Nkbl=1  erefs: 0.17977+309
L=2  Nkbl=1  erefs: 0.17977+309
L=3  Nkbl=1  erefs: 0.17977+309
</basis_specs>

atom: Called for O                     (Z =   8)

read_vps: Pseudopotential generation method:
read_vps: ATM4.2.7  Troullier-Martins
Valence charge for ps generation:    6.00000

xc_check: Exchange-correlation functional:
xc_check: GGA Perdew, Burke & Ernzerhof 1996
V l=0 = -2*Zval/r beyond r=  1.1000
V l=1 = -2*Zval/r beyond r=  1.1000
V l=2 = -2*Zval/r beyond r=  2.2154
V l=3 = -2*Zval/r beyond r=  1.1000
All V_l potentials equal beyond r=  2.2154
This should be close to max(r_c) in ps generation
All pots = -2*Zval/r beyond r=  2.2154

VLOCAL1: 99.0% of the norm of Vloc inside      8.845 Ry
VLOCAL1: 99.9% of the norm of Vloc inside     20.157 Ry
atom: Maximum radius for 4*pi*r*r*local-pseudopot. charge    2.67231
atom: Maximum radius for r*vlocal+2*Zval:    2.32897
GHOST: No ghost state for L =  0
GHOST: No ghost state for L =  1
GHOST: No ghost state for L =  2
GHOST: No ghost state for L =  3

KBgen: Kleinman-Bylander projectors:
   l= 0   rc=  2.243238   el= -1.759686   Ekb=**********   kbcos= -0.171774
   l= 1   rc=  2.328968   el= -0.663873   Ekb=-14.506792   kbcos= -0.519897
   l= 2   rc=  2.573941   el=  0.002031   Ekb= -1.137373   kbcos= -0.019581
   l= 3   rc=  2.606321   el=  0.003153   Ekb= -1.013546   kbcos= -0.003122

KBgen: Total number of Kleinman-Bylander projectors:   16
atom: -------------------------------------------------------------------------

atom: SANKEY-TYPE ORBITALS:
atom: Selected multiple-zeta basis: split

SPLIT: Orbitals with angular momentum L= 0

SPLIT: Basis orbitals for state 2s

SPLIT: PAO cut-off radius determined from an
SPLIT: energy shift=  0.002000 Ry

   izeta = 1
                 lambda =    1.000000
                     rc =    4.243912
                 energy =   -1.758270
                kinetic =    3.286084
    potential(screened) =   -5.044353
       potential(ionic) =  -12.921184

   izeta = 2
                 rmatch =    2.187845
              splitnorm =    0.280000
                 energy =   -0.885018
                kinetic =    8.134434
    potential(screened) =   -9.019452
       potential(ionic) =  -17.710645

[...]

SPLIT: Basis orbitals for state 2p

[...]

POLgen: Perturbative polarization orbital with L=  2

POLgen: Polarization orbital for state 2p

   izeta = 1
                     rc =    5.314825
                 energy =    1.970580
                kinetic =    3.886128
    potential(screened) =   -1.915547
       potential(ionic) =   -7.749584
atom: Total number of Sankey-type orbitals: 13

atm_pop: Valence configuration (for local Pseudopot. screening):
 2s( 2.00)
 2p( 4.00)
Vna: chval, zval:    6.00000   6.00000

Vna:  Cut-off radius for the neutral-atom potential:   5.314825

atom: _________________________________________________________________________

[...]

KBgen: Kleinman-Bylander projectors:
   l= 0   rc=  3.417763   el= -1.365098   Ekb= -4.433130   kbcos= -0.707855
   l= 1   rc=  3.375302   el= -0.521201   Ekb=-13.264039   kbcos= -0.535594
   l= 2   rc=  3.872880   el=  0.001991   Ekb= -0.641094   kbcos= -0.062456
   l= 3   rc=  3.970931   el=  0.003093   Ekb= -0.474517   kbcos= -0.018236

[...]

<basis_specs>
Si                   Z=  14    Mass=  28.090        Charge= 0.17977+309
Lmxo=1 Lmxkb= 3    BasisType=split      Semic=F
L=0  Nsemic=0  Cnfigmx=3
          i=1  nzeta=2  polorb=0  (3s)
            splnorm:   0.28000
               vcte:    0.0000
               rinn:    0.0000
               qcoe:    0.0000
               qyuk:    0.0000
               qwid:   0.10000E-01
                rcs:    0.0000      0.0000
            lambdas:    1.0000      1.0000
L=1  Nsemic=0  Cnfigmx=3
          i=1  nzeta=2  polorb=1  (3p)
            splnorm:   0.28000
               vcte:    0.0000
               rinn:    0.0000
               qcoe:    0.0000
               qyuk:    0.0000
               qwid:   0.10000E-01
                rcs:    0.0000      0.0000
            lambdas:    1.0000      1.0000
L=0  Nkbl=1  erefs: 0.17977+309
L=1  Nkbl=1  erefs: 0.17977+309
L=2  Nkbl=1  erefs: 0.17977+309
L=3  Nkbl=1  erefs: 0.17977+309
</basis_specs>

[...]

KBgen: Kleinman-Bylander projectors:
   l= 0   rc=  3.075247   el= -0.794092   Ekb=  5.879390   kbcos=  0.167461
   l= 1   rc=  3.153101   el= -0.300068   Ekb=  2.642817   kbcos=  0.058301
   l= 2   rc=  3.273594   el=  0.001958   Ekb= -1.185135   kbcos= -0.104411
   l= 3   rc=  3.232927   el=  0.003046   Ekb= -0.497174   kbcos= -0.015889

[...]

SPLIT: Basis orbitals for state 3p

[...]

POLgen: Polarization orbital for state 3p

[...]

atm_pop: Valence configuration (for local Pseudopot. screening):
 3s( 2.00)
 3p( 2.00)
Vna: chval, zval:    4.00000   4.00000

[...]

<basis_specs>
H                    Z=   1    Mass=  1.0100        Charge= 0.17977+309
Lmxo=0 Lmxkb= 2    BasisType=split      Semic=F
L=0  Nsemic=0  Cnfigmx=1
          i=1  nzeta=2  polorb=1  (1s)
            splnorm:   0.62000
               vcte:    0.0000
               rinn:    0.0000
               qcoe:    0.0000
               qyuk:    0.0000
               qwid:   0.10000E-01
                rcs:    0.0000      0.0000
            lambdas:    1.0000      1.0000
L=0  Nkbl=1  erefs: 0.17977+309
L=1  Nkbl=1  erefs: 0.17977+309
L=2  Nkbl=1  erefs: 0.17977+309
</basis_specs>

atom: Called for H                     (Z =   1)

read_vps: Pseudopotential generation method:
read_vps: ATM4.2.7  Troullier-Martins
Valence charge for ps generation:    1.00000

xc_check: Exchange-correlation functional:
xc_check: GGA Perdew, Burke & Ernzerhof 1996
V l=0 = -2*Zval/r beyond r=  0.0098
V l=1 = -2*Zval/r beyond r=  0.5817
V l=2 = -2*Zval/r beyond r=  1.9372
[...]
   scf:   33    -4146.632447    -4146.632447    -4146.632447  0.000000 -3.792735  0.000001
     spin moment: S , {S} =    0.00000   0.00000   0.00000   0.00000

SCF Convergence by DM+H criterion
max |DM_out - DM_in|         :     0.0000001419
max |H_out - H_in|      (eV) :     0.0000005927
SCF cycle converged after 33 iterations

Using DM_out to compute the final energy and forces
No. of atoms with KB's overlaping orbs in proc 0. Max # of overlaps:      29     142

siesta: E_KS(eV) =            -4146.6324

siesta: E_KS - E_eggbox =     -4146.6324
     spin moment: S , {S} =    0.00000   0.00000   0.00000   0.00000

siesta: Atomic forces (eV/Ang):
     1    2.178278   -1.963770   -0.000000
     2   -0.016821   -0.007354   -0.000000
     3   -0.071682    0.042588   -0.000000
     4   -0.069569   -0.037991    0.000000
     5    0.007846   -0.010899    0.000000
     6   -0.078737   -0.004253    0.000000
     7   -0.007115    0.003788   -0.000000
     8    0.050752    0.023685   -0.000000
     9    0.072120   -0.045863    0.000000
    10    0.170617    0.023702   -0.000000
    11   -0.027576    0.029300    0.000000
    12   -0.142689   -0.022709    0.000000
    13    0.007781    0.062592   -0.000000
    14    0.073562    0.086221   -0.000000
    15    0.206371    0.126946    0.000000
    16    0.091564    0.063990   -0.000000
    17   -0.115082    0.035972   -0.000000
    18    0.015586   -0.016420   -0.000000
    19   -0.006357    0.095635   -0.000000
    20   -0.017460    0.016485   -0.000000
    21    0.047162   -0.077288    0.000000
    22    0.092311   -0.033421   -0.000000
    23   -0.009927   -0.027681   -0.000000
    24   -0.059453    0.097397   -0.000000
    25   -0.074895    0.013045   -0.000000
    26   -0.089387    0.087297    0.000000
    27    0.052442   -0.006246    0.000000
    28    0.265693    3.334892    0.000000
    29    0.067955    0.023984    0.000000
   Tot    2.613290    1.913623   -0.000000
   Max    3.334892
   Res    0.480062    sqrt( Sum f_i^2 / 3N )
   Max    3.334892    constrained

Stress tensor Voigt[x,y,z,yz,xz,xy] (kbar):        0.34       -0.03       -0.09        0.00        0.00        0.40
(Free)E + p*V (eV/cell)    -4146.8846
Target enthalpy (eV/cell)    -4146.6324

mulliken: Atomic and Orbital Populations:

Species: O

Atom      Orb        Charge      Spin       Svec
    1  7 2pz       -0.00295   0.00000     -0.000  -0.000   0.000
    1  9 3Pdxy      0.00745   0.00000     -0.000   0.000   0.000
    1 10 3Pdyz      0.00942   0.00000      0.000   0.000  -0.000
    1 11 3Pdz2      0.00170   0.00000      0.000   0.000   0.000
    1 12 3Pdxz      0.00042   0.00000      0.000  -0.000  -0.000
    1 13 3Pdx2-y2   0.00712   0.00000     -0.000  -0.000   0.000
    1     Total     6.47160   0.00000      0.000  -0.000   0.000

   28  7 2pz       -0.00155   0.00000     -0.000  -0.000   0.000
   28  9 3Pdxy      0.00706   0.00000      0.000  -0.000  -0.000
   28 10 3Pdyz      0.01034   0.00000     -0.000   0.000  -0.000
   28 11 3Pdz2      0.00128   0.00000      0.000  -0.000  -0.000
   28 12 3Pdxz     -0.00017   0.00000     -0.000  -0.000  -0.000
   28 13 3Pdx2-y2   0.00775   0.00000      0.000   0.000  -0.000
   28     Total     6.48326   0.00000     -0.000   0.000   0.000

Total              12.95486   0.00000     -0.000   0.000   0.000

[...]

Atom      Orb        Charge      Spin       Svec
    2  9 3Pdxy      0.00842   0.00000     -0.000   0.000   0.000
    2 10 3Pdyz      0.01083   0.00000      0.000  -0.000  -0.000
    2 11 3Pdz2      0.00196   0.00000     -0.000   0.000   0.000
    2 12 3Pdxz      0.00754   0.00000     -0.000  -0.000   0.000
    2 13 3Pdx2-y2   0.00892   0.00000     -0.000  -0.000   0.000
    2     Total     5.37101   0.00000      0.000   0.000   0.000

    3  9 3Pdxy      0.00428   0.00000     -0.000   0.000   0.000
    3 10 3Pdyz      0.00415   0.00000      0.000  -0.000  -0.000
    3 11 3Pdz2      0.00083   0.00000     -0.000  -0.000   0.000
    3 12 3Pdxz      0.00266   0.00000      0.000  -0.000  -0.000
    3 13 3Pdx2-y2   0.00305   0.00000      0.000   0.000  -0.000
    3     Total     5.53867   0.00000      0.000  -0.000  -0.000

[...]

Atom      Orb        Charge      Spin       Svec
    7  9 3Pdxy      0.24273   0.00000     -0.000  -0.000   0.000
    7 10 3Pdyz      0.03033   0.00000     -0.000  -0.000  -0.000
    7 11 3Pdz2      0.01208   0.00000     -0.000  -0.000   0.000
    7 12 3Pdxz      0.13850   0.00000      0.000  -0.000   0.000
    7 13 3Pdx2-y2   0.11315   0.00000     -0.000  -0.000  -0.000
    7     Total     3.84746   0.00000      0.000   0.000   0.000

    8  5 3px       -0.03178   0.00000      0.000   0.000  -0.000
    8  9 3Pdxy      0.25868   0.00000     -0.000   0.000   0.000
    8 10 3Pdyz      0.11049   0.00000     -0.000   0.000  -0.000
    8 11 3Pdz2      0.01333   0.00000      0.000   0.000  -0.000
    8 12 3Pdxz      0.15582   0.00000     -0.000  -0.000  -0.000
    8 13 3Pdx2-y2   0.18802   0.00000     -0.000   0.000   0.000
    8     Total     3.65399   0.00000      0.000   0.000  -0.000

[...]

   20  9 3Pdxy      0.10286   0.00000     -0.000   0.000  -0.000
   20 10 3Pdyz      0.13508   0.00000     -0.000  -0.000  -0.000
   20 11 3Pdz2      0.00731   0.00000     -0.000  -0.000   0.000
   20 12 3Pdxz      0.02691   0.00000      0.000  -0.000   0.000
   20 13 3Pdx2-y2   0.17069   0.00000      0.000   0.000  -0.000
   20     Total     3.50478   0.00000     -0.000  -0.000  -0.000

[...]

Species: H

Atom      Orb        Charge      Spin       Svec
   12  3 2Ppy       0.02873   0.00000     -0.000  -0.000   0.000
   12  4 2Ppz       0.03550   0.00000     -0.000   0.000  -0.000
   12  5 2Ppx       0.02318   0.00000     -0.000  -0.000   0.000
   12     Total     0.76379   0.00000     -0.000   0.000  -0.000

   13  3 2Ppy       0.01983   0.00000     -0.000   0.000  -0.000
   13  4 2Ppz       0.02014   0.00000     -0.000   0.000  -0.000
   13  5 2Ppx       0.03321   0.00000      0.000   0.000   0.000
   13     Total     1.18811   0.00000     -0.000  -0.000  -0.000

[...]

   29  3 2Ppy       0.02518   0.00000      0.000  -0.000  -0.000
   29  4 2Ppz       0.03413   0.00000      0.000  -0.000  -0.000
   29  5 2Ppx       0.02380   0.00000      0.000   0.000  -0.000
   29     Total     0.75426   0.00000     -0.000  -0.000  -0.000

Total              98.00000   0.00000      0.000   0.000   0.000

siesta: Eigenvalues (eV):
ik =     1
  -22.0167  -22.0167  -21.9041  -21.9041  -21.7008  -21.7008  -21.4849  -21.4849  -21.3067  -21.3067
  -21.0680  -21.0680  -20.7997  -20.7997  -19.8485  -19.8485  -19.4828  -19.4828  -19.3736  -19.3736
  -14.7128  -14.7128  -13.8906  -13.8906  -13.2947  -13.2947  -13.1643  -13.1643  -13.1052  -13.1052
  -12.7907  -12.7907  -12.7899  -12.7899  -12.4610  -12.4610  -12.3507  -12.3507  -11.9469  -11.9469
  -11.4136  -11.4136  -10.7692  -10.7692  -10.7353  -10.7353  -10.6602  -10.6602  -10.0741  -10.0741
   -9.5607   -9.5607   -9.1791   -9.1791   -8.9706   -8.9706   -8.7572   -8.7572   -8.6222   -8.6222
   -8.6070   -8.6070   -8.3963   -8.3963   -8.1900   -8.1900   -7.7700   -7.7700   -7.6911   -7.6911
   -7.6892   -7.6892   -7.4277   -7.4277   -7.2591   -7.2591   -6.8158   -6.8158   -6.7741   -6.7741
   -6.5510   -6.5510   -6.5378   -6.5378   -6.2701   -6.2701   -6.1840   -6.1840   -6.1643   -6.1643
   -5.9218   -5.9218   -5.8811   -5.8811   -5.4453   -5.4453   -4.3773   -4.3773   -3.2090   -3.2090
   -2.3971   -2.3971   -2.3005   -2.3005   -2.2459   -2.2459   -1.9731   -1.9731   -1.8630   -1.8630
   -1.8511   -1.8511   -1.7624   -1.7624   -1.5846   -1.5846   -1.4898   -1.4898   -1.2474   -1.2474
   -0.9499   -0.9499   -0.7854   -0.7854   -0.4617   -0.4617   -0.1828   -0.1828    0.2987    0.2987
    0.3252    0.3252    0.3328    0.3328    0.6455    0.6455    0.7674    0.7674    0.8372    0.8372
    1.1884    1.1884    1.3240    1.3240    1.4054    1.4054    1.4581    1.4581    1.5238    1.5238
    1.7109    1.7109    1.9159    1.9159    2.2599    2.2599    2.4284    2.4284    2.6361    2.6361
    2.6981    2.6981    2.9605    2.9605    3.0541    3.0541    3.1410    3.1410    3.3121    3.3121
    3.3808    3.3808    3.7519    3.7519    3.9037    3.9037    4.1430    4.1430    4.3523    4.3523
    4.4490    4.4490    4.5186    4.5186    4.5633    4.5633    4.7416    4.7416    4.7709    4.7709
    4.8521    4.8521    5.1471    5.1471    5.2294    5.2294    5.5488    5.5488    5.5950    5.5950
    5.6032    5.6032    5.7862    5.7862    5.9464    5.9464    5.9752    5.9752    6.1128    6.1128
    6.2357    6.2357    6.3201    6.3201    6.5984    6.5984    6.6095    6.6095    6.8579    6.8579
    7.1303    7.1303    7.1732    7.1732    7.2601    7.2601    7.5057    7.5057    7.7614    7.7614
    7.8138    7.8138    8.0335    8.0335    8.1189    8.1189    8.1988    8.1988    8.2826    8.2826
    8.5819    8.5819    8.6860    8.6860    8.6993    8.6993    8.9438    8.9438    9.1608    9.1608
    9.2072    9.2072    9.2805    9.2805    9.7180    9.7180    9.7460    9.7460    9.7731    9.7731
    9.8038    9.8038   10.1862   10.1862   10.3404   10.3404   10.8083   10.8083   10.8749   10.8749
   10.9731   10.9731   11.0048   11.0048   11.1190   11.1190   11.8038   11.8038   11.9622   11.9622
   11.9907   11.9907   12.0108   12.0108   12.0936   12.0936   12.3407   12.3407   12.4199   12.4199
   12.7819   12.7819   12.8232   12.8232   13.3820   13.3820   13.5891   13.5891   13.7416   13.7416
   13.9276   13.9276   14.0441   14.0441   14.0831   14.0831   14.1407   14.1407   14.6702   14.6702
   15.0293   15.0293   15.5343   15.5343   15.8211   15.8211   16.1727   16.1727   16.7632   16.7632
   16.9226   16.9226   17.3630   17.3630   18.0964   18.0964   18.2341   18.2341   18.3599   18.3599
   18.4853   18.4853   19.2372   19.2372   19.4933   19.4933   20.1084   20.1084   20.2140   20.2140
   20.9903   20.9903   21.1978   21.1978   21.8067   21.8067   22.3638   22.3638   22.5602   22.5602
   23.0081   23.0081   23.1484   23.1484   23.5901   23.5901   23.7738   23.7738   23.9371   23.9371
   24.7673   24.7673   24.8074   24.8074   26.2505   26.2505   26.9144   26.9144   28.8012   28.8012
   28.9155   28.9155   28.9473   28.9473   29.4593   29.4593   29.8271   29.8271   30.0146   30.0146
   30.2870   30.2870   30.4241   30.4241   30.7695   30.7695   30.8742   30.8742   30.9817   30.9817
   31.1418   31.1418   31.2160   31.2160   31.5293   31.5293   31.7257   31.7257   32.3721   32.3721
   32.8095   32.8095   34.1226   34.1226   34.2684   34.2684   34.5612   34.5612   34.8076   34.8076
   35.0946   35.0946   35.1732   35.1732   35.3005   35.3005   35.4516   35.4516   35.9892   35.9892
   36.6058   36.6058   36.9002   36.9002   37.2744   37.2744   37.3716   37.3716   37.6650   37.6650
   38.0557   38.0557   38.2416   38.2416   39.1920   39.1920   39.3868   39.3868   39.9589   39.9589
   40.1013   40.1013   40.7186   40.7186   40.7962   40.7962   40.8659   40.8659   41.1992   41.1992
   41.3748   41.3748   41.4026   41.4026   42.5342   42.5342   42.9149   42.9149   43.2713   43.2713
   43.2746   43.2746   43.7065   43.7065   43.9430   43.9430   44.0025   44.0025   44.1157   44.1157
   44.6817   44.6817   44.7030   44.7030   44.8712   44.8712   45.3814   45.3814   46.2793   46.2793
   46.5000   46.5000   46.7681   46.7681   47.3896   47.3896   49.0715   49.0715   49.2076   49.2076
   49.4139   49.4139   50.4096   50.4096   50.9529   50.9529   50.9924   50.9924   51.1434   51.1434
   51.2934   51.2934   51.7765   51.7765   52.5037   52.5037   52.9061   52.9061   54.5612   54.5612
   54.9472   54.9472   54.9573   54.9573   55.2668   55.2668   55.7436   55.7436   55.8273   55.8273
   55.9630   55.9630   56.5468   56.5468   56.7273   56.7273   58.1890   58.1890   58.7208   58.7208
   59.2213   59.2213   60.2329   60.2329   60.3184   60.3184   61.0408   61.0408   61.4494   61.4494
   61.9482   61.9482   61.9949   61.9949   62.2354   62.2354   64.2977   64.2977   66.3603   66.3603
   67.1778   67.1778   67.2091   67.2091   68.7249   68.7249   68.9658   68.9658   70.6630   70.6630
   73.4453   73.4453   80.7990   80.7990   90.1174   90.1174   91.7109   91.7109   93.3808   93.3808
   98.2205   98.2205   99.3198   99.3198  100.3462  100.3462  103.1928  103.1928  103.4998  103.4998
  110.4677  110.4677  111.3197  111.3197  123.8477  123.8477  126.2196  126.2196  130.8851  130.8851
  139.8718  139.8718  141.2389  141.2389
siesta: Fermi energy =      -3.792735 eV

siesta: Program's energy decomposition (eV):
siesta: Ebs     =     -1136.376250
siesta: Eions   =      3585.165840
siesta: Ena     =       384.948837
siesta: Ekin    =      2907.815541
siesta: Enl     =     -2795.243240
siesta: Eso     =        -0.004256
siesta: Edftu   =         0.000000
siesta: DEna    =        47.471862
siesta: DUscf   =        14.350141
siesta: DUext   =         0.000000
siesta: Exc     =     -1120.805493
siesta: eta*DQ  =         0.000000
siesta: Emadel  =         0.000000
siesta: Emeta   =         0.000000
siesta: Emolmec =         0.000000
siesta: Ekinion =         0.000000
siesta: Eharris =     -4146.632447
siesta: Etot    =     -4146.632447
siesta: FreeEng =     -4146.632447

siesta: Final energy (eV):
siesta:  Band Struct. =   -1136.376250
siesta:       Kinetic =    2907.815541
siesta:       Hartree =    8246.858914
siesta:       Edftu   =       0.000000
siesta:       Eso     =      -0.004256
siesta:    Ext. field =       0.000000
siesta:   Exch.-corr. =   -1120.805493
siesta:  Ion-electron =  -19082.975435
siesta:       Ion-ion =    4902.478282
siesta:       Ekinion =       0.000000
siesta:         Total =   -4146.632447
siesta:         Fermi =      -3.792735

siesta: Atomic forces (eV/Ang):
siesta:      1    2.178278   -1.963770   -0.000000
siesta:      2   -0.016821   -0.007354   -0.000000
siesta:      3   -0.071682    0.042588   -0.000000
siesta:      4   -0.069569   -0.037991    0.000000
siesta:      5    0.007846   -0.010899    0.000000
siesta:      6   -0.078737   -0.004253    0.000000
siesta:      7   -0.007115    0.003788   -0.000000
siesta:      8    0.050752    0.023685   -0.000000
siesta:      9    0.072120   -0.045863    0.000000
siesta:     10    0.170617    0.023702   -0.000000
siesta:     11   -0.027576    0.029300    0.000000
siesta:     12   -0.142689   -0.022709    0.000000
siesta:     13    0.007781    0.062592   -0.000000
siesta:     14    0.073562    0.086221   -0.000000
siesta:     15    0.206371    0.126946    0.000000
siesta:     16    0.091564    0.063990   -0.000000
siesta:     17   -0.115082    0.035972   -0.000000
siesta:     18    0.015586   -0.016420   -0.000000
siesta:     19   -0.006357    0.095635   -0.000000
siesta:     20   -0.017460    0.016485   -0.000000
siesta:     21    0.047162   -0.077288    0.000000
siesta:     22    0.092311   -0.033421   -0.000000
siesta:     23   -0.009927   -0.027681   -0.000000
siesta:     24   -0.059453    0.097397   -0.000000
siesta:     25   -0.074895    0.013045   -0.000000
siesta:     26   -0.089387    0.087297    0.000000
siesta:     27    0.052442   -0.006246    0.000000
siesta:     28    0.265693    3.334892    0.000000
siesta:     29    0.067955    0.023984    0.000000
siesta: ----------------------------------------
siesta:    Tot    2.613290    1.913623   -0.000000

siesta: Stress tensor (static) (eV/Ang**3):
siesta:     0.000213    0.000249   -0.000000
siesta:     0.000249   -0.000016    0.000000
siesta:     0.000000    0.000000   -0.000058

siesta: Cell volume =       5480.229103 Ang**3

siesta: Pressure (static):
siesta:                Solid            Molecule  Units
siesta:          -0.00000050          0.00000639  Ry/Bohr**3
siesta:          -0.00004601          0.00058629  eV/Ang**3
siesta:          -0.07371447          0.93934280  kBar
(Free)E+ p_basis*V_orbitals  =       -4126.782030
(Free)Eharris+ p_basis*V_orbitals  =       -4126.782030
     spin moment: S , {S} =    0.00000   0.00000   0.00000   0.00000

siesta: Electric dipole (a.u.)  =    1.413795    0.007923    0.000000
siesta: Electric dipole (Debye) =    3.593510    0.020139    0.000000

cite: Please see "GC.bib" for an exhaustive BiBTeX file.
cite: Please clearly indicate Siesta version in published work: v4.1.5-1-g384057250
cite: This calculation has made use of the following articles
cite: which are encouraged to be cited in a published work.
        Primary SIESTA paper
          DOI: www.doi.org/10.1088/0953-8984/14/11/302
        Spin-orbit coupling (on-site approximation)
          DOI: www.doi.org/10.1088/0953-8984/19/19/489001

WARNING: alloc-realloc-dealloc name mismatch
         Name: atomlist isa
         Node:     0
         Subsequent mismatches will not be reported
>> End of run:  22-MAY-2023  19:21:39
Job completed