 NOTE: Siesta V5 introduces some new defaults for basis-set generation
 NOTE: which might lead to slightly different numerical results.
 NOTE: Please see the manual for full details and compatibility measures.

reinit: Reading from standard input
reinit: Dumping input in INPUT_TMP.73311
************************** Dump of input data file ****************************
# mpirun -np 8 siesta-5 < GC.fdf > GC.out &
SystemLabel      GC
NumberOfAtoms    29
NumberOfSpecies  4
%block ChemicalSpeciesLabel
    1    1  H ../../../Pseudos/PBE/H/H.psf
    2    7  N ../../../Pseudos/PBE/N/N.psf
    3   14  Si ../../../Pseudos/PBE/Si/Si.psf
    4    8  O ../../../Pseudos/PBE/O/O.psf
%endblock ChemicalSpeciesLabel
# This overrides Defaults.fdf configuration
XC.Functional               VDW
XC.Authors                  DRSLL
MD.Steps                    1000
%block Geometry.Constraints
    atom all 0.0 0.0 1.0 # constrain along z Cartesian vector
    atom [7]
%endblock
AtomicCoordinatesFormat NotScaledCartesianAng
%block AtomicCoordinatesAndAtomicSpecies
    1.03711479    3.59345352   -0.00000000   1       1  H
    0.33062806    2.80341734   -0.00000000   2       2  N
   -1.39965885    3.24478125    0.00000000   3       3  Si
   -1.55543853    4.73477351    0.00000000   1       4  H
   -2.92298047    1.68587373   -0.00000000   3       5  Si
   -4.40616810    1.92870409   -0.00000000   1       6  H
   -1.72458961   -0.22740243   -0.00000000   3       7  Si
   -2.49061507   -1.76011917   -0.00000000   2       8  N
   -1.90036852   -2.71733220    0.00000000   1       9  H
   -3.54223739   -1.84057940   -0.00000000   1      10  H
   -0.00838955   -0.17222812    0.00000000   2      11  N
    1.06663307    1.15811072   -0.00000000   3      12  Si
    2.67530639    1.13930046   -0.00000000   4      13  O
    5.61644830   -7.44953905    0.00000000   1      14  H
    4.58206954   -7.23203760    0.00000000   2      15  N
    3.29666389   -8.49263600    0.00000000   3      16  Si
    3.80117524   -9.90371886   -0.00000000   1      17  H
    1.65934232   -8.01362137    0.00000000   2      18  N
    1.68097912   -6.20463398   -0.00000000   3      19  Si
    0.54543521   -4.28636135    0.00000000   3      20  Si
   -1.03431493   -3.94450034    0.00000000   4      21  O
    1.73226934   -2.87719605    0.00000000   2      22  N
    1.20957366   -1.92961761   -0.00000000   1      23  H
    3.50853448   -2.77677601    0.00000000   3      24  Si
    4.13684451   -1.17938608    0.00000000   2      25  N
    3.54296161   -0.26248101    0.00000000   1      26  H
    5.18364407   -1.05231197   -0.00000000   1      27  H
    4.63288658   -4.07521596   -0.00000000   2      28  N
    3.79410501   -5.58634043    0.00000000   3      29  Si
%endblock AtomicCoordinatesAndAtomicSpecies
# Unit Cell
LatticeConstant 1.0 Ang
%block LatticeVectors
    18.663680   0.000000     0.000000
    0.000000    23.664587    0.000000
    0.000000    0.000000     9.854683
%endblock LatticeVectors
%include ../../../Defaults.fdf
************************** End of input data file *****************************

reinit: -----------------------------------------------------------------------
reinit: System Name:
reinit: -----------------------------------------------------------------------
reinit: System Label: GC
reinit: -----------------------------------------------------------------------

NOTE on units for spin output:
{S} is the spin magnetic moment, in units of the Bohr magneton,
assuming a g-factor for the electron spin of exactly 2.
The spin magnetic moment is then numerically equal to the charge inbalance,
in units of electrons, between the spin-up and -down channels.

initatom: Reading input for the pseudopotentials and atomic orbitals ----------
Species number:   1 Atomic number:    1 Label: H
Species number:   2 Atomic number:    7 Label: N
Species number:   3 Atomic number:   14 Label: Si
Species number:   4 Atomic number:    8 Label: O

Ground state valence configuration (from tables):   1s01  2p00  3d00  4f00
Ground state valence configuration (from tables):   2s02  2p03  3d00  4f00
Ground state valence configuration (from tables):   3s02  3p02  3d00  4f00
Ground state valence configuration (from tables):   2s02  2p04  3d00  4f00

---- Processing specs for species: H
Reading pseudopotential information in formatted form from:
  ../../../Pseudos/PBE/H/H.psf

[...]

---- Processing specs for species: O
Reading pseudopotential information in formatted form from:
  ../../../Pseudos/PBE/O/O.psf

---- Pseudopotential check for H

Pseudopotential generated from a fully relativistic atomic calculation
There are spin-orbit semi-local pseudopotentials available

Pseudized shells:
1s( 1.00) rc: 0.05
Valence configuration for ps generation: (assumed as above)

[...]

Pseudized shells:
2s( 2.00) rc: 1.02
2p( 3.00) rc: 1.36
3d( 0.00) rc: 3.29
Valence configuration for ps generation: (assumed as above)

[...]

Pseudized shells:
3s( 2.00) rc: 1.67
3p( 2.00) rc: 2.22
3d( 0.00) rc: 3.44
Valence configuration for ps generation: (assumed as above)

---- Pseudopotential check for O

Pseudopotential generated from a fully relativistic atomic calculation
There are spin-orbit semi-local pseudopotentials available

Pseudized shells:
2s( 2.00) rc: 1.05
2p( 4.00) rc: 1.02
Valence configuration for ps generation: (assumed as above)
For H, standard SIESTA heuristics set lmxkb to 2
 (one more than the basis l, including polarization orbitals).
Use PS.lmax or PS.KBprojectors blocks to override.
For N, standard SIESTA heuristics set lmxkb to 3
 (one more than the basis l, including polarization orbitals).
Use PS.lmax or PS.KBprojectors blocks to override.
For Si, standard SIESTA heuristics set lmxkb to 3
 (one more than the basis l, including polarization orbitals).
Use PS.lmax or PS.KBprojectors blocks to override.
For O, standard SIESTA heuristics set lmxkb to 3
 (one more than the basis l, including polarization orbitals).
Use PS.lmax or PS.KBprojectors blocks to override.
../../../Pseudos/PBE/H/H.psf pseudopotential only contains V_ls up to l=0 -- lmxkb reset.
../../../Pseudos/PBE/N/N.psf pseudopotential only contains V_ls up to l=2 -- lmxkb reset.
../../../Pseudos/PBE/Si/Si.psf pseudopotential only contains V_ls up to l=2 -- lmxkb reset.
../../../Pseudos/PBE/O/O.psf pseudopotential only contains V_ls up to l=1 -- lmxkb reset.

<basis_specs>
H                    Z=   1    Mass=  1.0080        Charge= 0.17977+309
Lmxo=1 Lmxkb= 0    BasisType=split      Semic=F
L=0  Nsemic=0  Cnfigmx=1
          i=1  nzeta=2  polorb=1  (1s)  (to be polarized perturbatively)
            splnorm:   0.62000
               vcte:    40.000
               rinn:  -0.90000
               qcoe:    0.0000
               qyuk:    0.0000
               qwid:   0.10000E-01
                rcs:    0.0000      0.0000
            lambdas:    1.0000      1.0000
L=1  Nsemic=0  Cnfigmx=2
          i=1  nzeta=0  polorb=0  (2p)  (perturbative polarization orbital) (from 1s)
</basis_specs>

Filter: Requested cutoff:  290.000000 Ry
Using PAO.SplitTailNorm
atom: Called for H                     (Z =   1)
NOTE: H pseudopotential has channels up to l= 0
NOTE: PAOs with higher l will be generated with V_local
Maximum radius (at nrval) set to   50.00000 8518

read_vps: Pseudopotential generation method:
read_vps: ATM4.2.7  Troullier-Martins
Valence charge in pseudo generation:    1.00000

xc_check: Exchange-correlation functional:
xc_check: VDW Dion-Rydberg-Schroeder-Langreth-Lundqvist
xc_check: WARNING: Pseudopotential generated with GGA PBE functional
V l=0 = -2*Zval/r beyond r=  0.0513
All V_l potentials equal beyond r=  0.0513
This should be close to max(r_c) in ps generation
All pots = -2*Zval/r beyond r=  0.0513
Using small-core scheme (local charge) for Vlocal

VLOCAL_FROM_CHLOCAL: 99.0% of the norm of Vloc inside  16462.511 Ry
VLOCAL_FROM_CHLOCAL: 99.9% of the norm of Vloc inside  37518.368 Ry
atom: Maximum radius for chlocal:    0.06330
atom: Maximum radius for r*vlocal+2*Zval:    0.05437

KBgen: Kleinman-Bylander projectors:
GHOST: No ghost state for L =  0
KBproj: WARNING: Rc(0)=      0.3094
KBproj: WARNING: Cut off radius for the KB projector too small
   l= 0   rc=  0.309445   el= -0.511447   Ekb=-33.941717   kbcos= -0.005337

KBgen: Total number of Kleinman-Bylander projectors:   1
atom: -------------------------------------------------------------------------

atom: SANKEY-TYPE ORBITALS:
atom: Selected multiple-zeta basis: split

SPLIT: Orbitals with angular momentum L= 0

SPLIT: Basis orbitals for state 1s

SPLIT: PAO cut-off radius determined from an
SPLIT: energy shift=  0.005000 Ry
Split based on tail norm

   izeta = 1
                 lambda =    1.000000
                     rc =    5.737873
                 energy =   -0.505745
                kinetic =    0.991006
    potential(screened) =   -1.496751
       potential(ionic) =   -1.986364
PAO Filter: Cutoff used:  142.10 Ry
PAO Filter: diagnostic kin energy tol:    0.003000 Ry
PAO Filter: Nominal cutoff (before filtering):  118.51 Ry
Filter:    Number of eigenfunctions  of the
           filtering kernel (total, used)= 54 20

   izeta = 2
                 rmatch =    1.623671
              splitnorm =    0.620000
                 energy =    1.793721
                kinetic =    6.122345
    potential(screened) =   -4.328624
       potential(ionic) =   -4.746482
PAO Filter: Cutoff used:  142.10 Ry
PAO Filter: diagnostic kin energy tol:    0.003000 Ry
PAO Filter: Nominal cutoff (before filtering):  901.70 Ry
Filter:    Number of eigenfunctions  of the
           filtering kernel (total, used)= 23  5
*Note: V_local used for l= 1

** Using vlocal for PAOs with L= 1

POLgen: Perturbative polarization orbital with L=  1

POLgen: Polarization orbital for state 1s
*Note: V_local used for lpol= 1

** Using vlocal for PAOs with L= 1
Split based on tail norm

   izeta = 1
                     rc =    5.737873
                 energy =    0.614161
                kinetic =    1.266520
    potential(screened) =   -0.652359
       potential(ionic) =   -1.116715
PAO Filter: diagnostic kin energy tol:    0.003000 Ry
PAO Filter: Nominal cutoff (before filtering):   54.78 Ry
Filter:    Number of eigenfunctions  of the
           filtering kernel (total, used)= 54 20
atom: Total number of Sankey-type orbitals:  5

atm_pop: Valence configuration (for local Pseudopot. screening):
 1s( 1.00)
 2p( 0.00)
Vna: chval, zval:    1.00000   1.00000

Vna:  Cut-off radius for the neutral-atom potential:   5.737873
VNA Filter: diagnostic kinetic energy tol:    0.003000 Ry
VNA Filter: Nominal cutoff (before filtering):21298.78 Ry
VNA Filter: Cutoff used:   290.00 Ry
Filter:    Number of eigenfunctions  of the
           filtering kernel (total, used)= 74 29

atom: _________________________________________________________________________

<basis_specs>
N                    Z=   7    Mass=  14.007        Charge= 0.17977+309
Lmxo=2 Lmxkb= 2    BasisType=split      Semic=F
L=0  Nsemic=0  Cnfigmx=2
          i=1  nzeta=2  polorb=0  (2s)
            splnorm:   0.28000
               vcte:    40.000
               rinn:  -0.90000
               qcoe:    0.0000
[...]
     spin moment: {S} , |S| = {   -0.00000   -0.00000   -0.00000 }     0.00000

[...]

        iscf     Eharris(eV)        E_KS(eV)     FreeEng(eV)     dDmax    Ef(eV) dHmax(eV)
   scf:    1    -8807.757560    -8807.752450    -8807.752450  0.001716 -3.705261  0.015981
     spin moment: {S} , |S| = {   -0.00000   -0.00000   -0.00000 }     0.00000
   scf:    2    -8807.752098    -8807.752352    -8807.752352  0.000642 -3.269040  0.041073
     spin moment: {S} , |S| = {   -0.00000   -0.00000   -0.00000 }     0.00000
   scf:    3    -8807.752493    -8807.752467    -8807.752467  0.000452 -3.706754  0.000705
     spin moment: {S} , |S| = {   -0.00000   -0.00000   -0.00000 }     0.00000
   scf:    4    -8807.752467    -8807.752467    -8807.752467  0.000016 -3.706821  0.000423
     spin moment: {S} , |S| = {   -0.00000   -0.00000   -0.00000 }     0.00000
   scf:    5    -8807.752467    -8807.752467    -8807.752467  0.000009 -3.706852  0.000163
     spin moment: {S} , |S| = {   -0.00000   -0.00000   -0.00000 }     0.00000
   scf:    6    -8807.752467    -8807.752467    -8807.752467  0.000004 -3.706858  0.000056
     spin moment: {S} , |S| = {   -0.00000   -0.00000   -0.00000 }     0.00000
   scf:    7    -8807.752467    -8807.752467    -8807.752467  0.000002 -3.706855  0.000020
     spin moment: {S} , |S| = {   -0.00000   -0.00000   -0.00000 }     0.00000
   scf:    8    -8807.752467    -8807.752467    -8807.752467  0.000001 -3.706853  0.000009
     spin moment: {S} , |S| = {   -0.00000   -0.00000   -0.00000 }     0.00000
   scf:    9    -8807.752467    -8807.752467    -8807.752467  0.000001 -3.706852  0.000003
     spin moment: {S} , |S| = {   -0.00000   -0.00000   -0.00000 }     0.00000
   scf:   10    -8807.752467    -8807.752467    -8807.752467  0.000000 -3.706852  0.000001
     spin moment: {S} , |S| = {   -0.00000   -0.00000   -0.00000 }     0.00000
   scf:   11    -8807.752467    -8807.752467    -8807.752467  0.000000 -3.706852  0.000001
     spin moment: {S} , |S| = {   -0.00000   -0.00000   -0.00000 }     0.00000

[...]

        iscf     Eharris(eV)        E_KS(eV)     FreeEng(eV)     dDmax    Ef(eV) dHmax(eV)
   scf:    1    -8807.753449    -8807.752935    -8807.752935  0.000092 -3.265491  0.002688
     spin moment: {S} , |S| = {   -0.00000   -0.00000   -0.00000 }     0.00000
   scf:    2    -8807.752921    -8807.752931    -8807.752931  0.000215 -3.265588  0.010883
     spin moment: {S} , |S| = {   -0.00000   -0.00000   -0.00000 }     0.00000
   scf:    3    -8807.752936    -8807.752935    -8807.752935  0.000173 -3.265513  0.000382
     spin moment: {S} , |S| = {   -0.00000   -0.00000   -0.00000 }     0.00000
   scf:    4    -8807.752935    -8807.752935    -8807.752935  0.000003 -3.265509  0.000169
     spin moment: {S} , |S| = {   -0.00000   -0.00000   -0.00000 }     0.00000
   scf:    5    -8807.752935    -8807.752935    -8807.752935  0.000001 -3.265505  0.000044
     spin moment: {S} , |S| = {   -0.00000   -0.00000   -0.00000 }     0.00000
   scf:    6    -8807.752935    -8807.752935    -8807.752935  0.000000 -3.265502  0.000021
     spin moment: {S} , |S| = {   -0.00000   -0.00000   -0.00000 }     0.00000
   scf:    7    -8807.752935    -8807.752935    -8807.752935  0.000000 -3.265500  0.000008
     spin moment: {S} , |S| = {   -0.00000   -0.00000   -0.00000 }     0.00000
   scf:    8    -8807.752935    -8807.752935    -8807.752935  0.000000 -3.265500  0.000003
     spin moment: {S} , |S| = {   -0.00000   -0.00000   -0.00000 }     0.00000
   scf:    9    -8807.752935    -8807.752935    -8807.752935  0.000000 -3.265500  0.000001
     spin moment: {S} , |S| = {   -0.00000   -0.00000   -0.00000 }     0.00000

[...]

                        Begin Broyden opt. move =     81

outcoor: Atomic coordinates (Ang):
    0.99466806    3.58032984    0.00000000   1       1  H
    0.28363298    2.81202576    0.00000000   2       2  N
   -1.43680539    3.28028103    0.00000000   3       3  Si
   -1.58784427    4.75825624    0.00000000   1       4  H
   -2.91825243    1.68367821    0.00000000   3       5  Si
   -4.39762002    1.83346656    0.00000000   1       6  H
   -1.72458961   -0.22740243    0.00000000   3       7  Si
   -2.48452746   -1.75028589    0.00000000   2       8  N
   -1.97849722   -2.68073656    0.00000000   1       9  H
   -3.49163488   -1.92228569    0.00000000   1      10  H
   -0.02896456   -0.15929827    0.00000000   2      11  N
    1.02149313    1.17310894    0.00000000   3      12  Si
    2.60909544    1.17703994    0.00000000   4      13  O
    5.65591860   -7.46824833    0.00000000   1      14  H
    4.63025118   -7.26907570    0.00000000   2      15  N
    3.34849335   -8.53314195    0.00000000   3      16  Si
    3.81568662   -9.93102457    0.00000000   1      17  H
    1.72746749   -8.05196935    0.00000000   2      18  N
    1.73332541   -6.24387630    0.00000000   3      19  Si
    0.57167742   -4.35431028    0.00000000   3      20  Si
   -0.99059700   -4.03240941    0.00000000   4      21  O
    1.74760562   -2.93310526    0.00000000   2      22  N
    1.21540598   -2.00908239    0.00000000   1      23  H
    3.51464287   -2.81401757    0.00000000   3      24  Si
    4.11948213   -1.21085069    0.00000000   2      25  N
    3.50795467   -0.33341948    0.00000000   1      26  H
    5.15342033   -1.06258823    0.00000000   1      27  H
    4.62341703   -4.10090774    0.00000000   2      28  N
    3.83325823   -5.62601379    0.00000000   3      29  Si

outcell: Unit cell vectors (Ang):
       18.663680    0.000000    0.000000
        0.000000   23.664587    0.000000
        0.000000    0.000000    9.854683

outcell: Cell vector modules (Ang)   :   18.663680   23.664587    9.854683
outcell: Cell angles (23,13,12) (deg):     90.0000     90.0000     90.0000
outcell: Cell volume (Ang**3)        :   4352.5009
<dSpData1D:S at geom step 81
  <sparsity:sparsity for geom step 81
    nrows_g=297 nrows=18 sparsity=.0427 nnzs=3768, refcount: 8>
  <dData1D:(new from dSpData1D) n=3768, refcount: 1>
refcount: 1>
new_DM -- step:    82
Re-using DM from previous geometries...
Number of DMs in history: 1
 DM extrapolation coefficients:
1   1.00000
New DM after history re-use:
<dSpData2D:SpM extrapolated using coords
  <sparsity:sparsity for geom step 81
    nrows_g=297 nrows=18 sparsity=.0427 nnzs=3768, refcount: 10>
  <dData2D:(temp array for extrapolation) n=3768 m=8, refcount: 1>
refcount: 1>
     spin moment: {S} , |S| = {   -0.00000   -0.00000   -0.00000 }     0.00000

InitMesh: MESH = 200 x 250 x 108 = 5400000
InitMesh: Mesh cutoff (required, used) =   300.000   308.450 Ry
New grid distribution [1]: sub = 2
New grid distribution [2]: sub = 2
New grid distribution [3]: sub = 2
Setting up quadratic distribution...

        iscf     Eharris(eV)        E_KS(eV)     FreeEng(eV)     dDmax    Ef(eV) dHmax(eV)
   scf:    1    -8807.752443    -8807.753099    -8807.753099  0.000339 -3.705290  0.009165
     spin moment: {S} , |S| = {   -0.00000   -0.00000   -0.00000 }     0.00000
   scf:    2    -8807.752921    -8807.753048    -8807.753048  0.000631 -3.705019  0.037667
     spin moment: {S} , |S| = {   -0.00000   -0.00000   -0.00000 }     0.00000
   scf:    3    -8807.753116    -8807.753105    -8807.753105  0.000518 -3.705194  0.001001
     spin moment: {S} , |S| = {   -0.00000   -0.00000   -0.00000 }     0.00000
   scf:    4    -8807.753105    -8807.753105    -8807.753105  0.000011 -3.705162  0.000415
     spin moment: {S} , |S| = {   -0.00000   -0.00000   -0.00000 }     0.00000
   scf:    5    -8807.753105    -8807.753105    -8807.753105  0.000005 -3.705131  0.000121
     spin moment: {S} , |S| = {   -0.00000   -0.00000   -0.00000 }     0.00000
   scf:    6    -8807.753105    -8807.753105    -8807.753105  0.000002 -3.705123  0.000050
     spin moment: {S} , |S| = {   -0.00000   -0.00000   -0.00000 }     0.00000
   scf:    7    -8807.753105    -8807.753105    -8807.753105  0.000001 -3.705119  0.000021
     spin moment: {S} , |S| = {   -0.00000   -0.00000   -0.00000 }     0.00000
   scf:    8    -8807.753105    -8807.753105    -8807.753105  0.000001 -3.705117  0.000007
     spin moment: {S} , |S| = {   -0.00000   -0.00000   -0.00000 }     0.00000
   scf:    9    -8807.753105    -8807.753105    -8807.753105  0.000000 -3.705116  0.000002
     spin moment: {S} , |S| = {   -0.00000   -0.00000   -0.00000 }     0.00000
   scf:   10    -8807.753105    -8807.753105    -8807.753105  0.000000 -3.705116  0.000001
     spin moment: {S} , |S| = {   -0.00000   -0.00000   -0.00000 }     0.00000

SCF Convergence by DM+H criterion
max |DM_out - DM_in|         :     0.0000001220
max |H_out - H_in|      (eV) :     0.0000006656
SCF cycle converged after 10 iterations

Using DM_out to compute the final energy and forces

siesta: E_KS(eV) =            -8807.7531
     spin moment: {S} , |S| = {   -0.00000   -0.00000   -0.00000 }     0.00000

siesta: Atomic forces (eV/Ang):
     1    0.000859   -0.004102   -0.000000
     2   -0.002970   -0.003563   -0.000000
     3   -0.000317   -0.000252    0.000000
     4    0.003504   -0.000178    0.000000
     5   -0.000701    0.000036   -0.000000
     6   -0.000543    0.003181    0.000000
     7    0.042188    0.179846   -0.000000
     8    0.000180    0.002097    0.000000
     9   -0.003050    0.002572   -0.000000
    10   -0.002641    0.001453   -0.000000
    11   -0.000722   -0.005751   -0.000000
    12   -0.000409   -0.002859    0.000000
    13   -0.002691   -0.000552    0.000000
    14    0.003243    0.006894    0.000000
    15   -0.006954    0.004637   -0.000000
    16    0.001436    0.000153    0.000000
    17    0.007200    0.000867   -0.000000
    18   -0.000360   -0.001390   -0.000000
    19   -0.002702   -0.002118    0.000000
    20   -0.003904   -0.003386    0.000000
    21    0.000106    0.005338    0.000000
    22    0.002434   -0.007801   -0.000000
    23    0.005408   -0.006225    0.000000
    24    0.000958   -0.002803    0.000000
    25   -0.001307    0.000984   -0.000000
    26   -0.004861   -0.005857    0.000000
    27   -0.002094    0.001865    0.000000
    28    0.000892   -0.000620   -0.000000
    29   -0.002906    0.001064   -0.000000
   Tot    0.029275    0.163532    0.000000
   Max    0.179846
   Res    0.019983    sqrt( Sum f_i^2 / 3N )
   Max    0.007801    constrained

Stress tensor Voigt[x,y,z,yz,xz,xy] (kbar):        0.01       -0.01       -0.02       -0.00       -0.00        0.12
(Free)E + p*V (eV/cell)    -8807.7267
Target enthalpy (eV/cell)    -8807.7531

outcoor: Relaxed atomic coordinates (Ang):
    0.99466806    3.58032984    0.00000000   1       1  H
    0.28363298    2.81202576    0.00000000   2       2  N
   -1.43680539    3.28028103    0.00000000   3       3  Si
   -1.58784427    4.75825624    0.00000000   1       4  H
   -2.91825243    1.68367821    0.00000000   3       5  Si
   -4.39762002    1.83346656    0.00000000   1       6  H
   -1.72458961   -0.22740243    0.00000000   3       7  Si
   -2.48452746   -1.75028589    0.00000000   2       8  N
   -1.97849722   -2.68073656    0.00000000   1       9  H
   -3.49163488   -1.92228569    0.00000000   1      10  H
   -0.02896456   -0.15929827    0.00000000   2      11  N
    1.02149313    1.17310894    0.00000000   3      12  Si
    2.60909544    1.17703994    0.00000000   4      13  O
    5.65591860   -7.46824833    0.00000000   1      14  H
    4.63025118   -7.26907570    0.00000000   2      15  N
    3.34849335   -8.53314195    0.00000000   3      16  Si
    3.81568662   -9.93102457    0.00000000   1      17  H
    1.72746749   -8.05196935    0.00000000   2      18  N
    1.73332541   -6.24387630    0.00000000   3      19  Si
    0.57167742   -4.35431028    0.00000000   3      20  Si
   -0.99059700   -4.03240941    0.00000000   4      21  O
    1.74760562   -2.93310526    0.00000000   2      22  N
    1.21540598   -2.00908239    0.00000000   1      23  H
    3.51464287   -2.81401757    0.00000000   3      24  Si
    4.11948213   -1.21085069    0.00000000   2      25  N
    3.50795467   -0.33341948    0.00000000   1      26  H
    5.15342033   -1.06258823    0.00000000   1      27  H
    4.62341703   -4.10090774    0.00000000   2      28  N
    3.83325823   -5.62601379    0.00000000   3      29  Si

siesta: Program's energy decomposition (eV):
siesta: Ebs     =     -1130.852375
siesta: Eions   =      8956.034415
siesta: Ena     =      1892.561625
siesta: Ekin    =      2755.284318
siesta: Enl(+so)=     -2035.577768
siesta: Eso(nil)=         0.000000
siesta: Edftu   =         0.000000
siesta: DEna    =        16.708286
siesta: DUscf   =        11.816351
siesta: DUext   =         0.000000
siesta: Ex      =     -2284.868329
siesta: Ec      =      -207.643171
siesta: Exc     =     -2492.511501
siesta: EbV     =         0.000000
siesta: eta*DQ  =         0.000000
siesta: Emadel  =         0.000000
siesta: Emeta   =         0.000000
siesta: Emolmec =         0.000000
siesta: Ekinion =         0.000000
siesta: Eharris =     -8807.753105
siesta: Etot    =     -8807.753105
siesta: FreeEng =     -8807.753105

siesta: Final energy (eV):
siesta:  Band Struct. =   -1130.852375
siesta:       Kinetic =    2755.284318
siesta:       Hartree =    9016.187943
siesta:         Edftu =       0.000000
siesta:      Eso(nil) =       0.000000
siesta:    Ext. field =       0.000000
siesta:         Exch. =   -2284.868329
siesta:         Corr. =    -207.643171
siesta:     Bulk bias =       0.000000
siesta:   Exch.-corr. =   -2492.511501
siesta:  Ion-electron =  -20410.718721
siesta:       Ion-ion =    2324.004856
siesta:       Ekinion =       0.000000
siesta: D3 dispersion =       0.000000
siesta:         Total =   -8807.753105
siesta:         Fermi =      -3.705116

siesta: Atomic forces (eV/Ang):
siesta:      1    0.000859   -0.004102   -0.000000
siesta:      2   -0.002970   -0.003563   -0.000000
siesta:      3   -0.000317   -0.000252    0.000000
siesta:      4    0.003504   -0.000178    0.000000
siesta:      5   -0.000701    0.000036   -0.000000
siesta:      6   -0.000543    0.003181    0.000000
siesta:      7    0.042188    0.179846   -0.000000
siesta:      8    0.000180    0.002097    0.000000
siesta:      9   -0.003050    0.002572   -0.000000
siesta:     10   -0.002641    0.001453   -0.000000
siesta:     11   -0.000722   -0.005751   -0.000000
siesta:     12   -0.000409   -0.002859    0.000000
siesta:     13   -0.002691   -0.000552    0.000000
siesta:     14    0.003243    0.006894    0.000000
siesta:     15   -0.006954    0.004637   -0.000000
siesta:     16    0.001436    0.000153    0.000000
siesta:     17    0.007200    0.000867   -0.000000
siesta:     18   -0.000360   -0.001390   -0.000000
siesta:     19   -0.002702   -0.002118    0.000000
siesta:     20   -0.003904   -0.003386    0.000000
siesta:     21    0.000106    0.005338    0.000000
siesta:     22    0.002434   -0.007801   -0.000000
siesta:     23    0.005408   -0.006225    0.000000
siesta:     24    0.000958   -0.002803    0.000000
siesta:     25   -0.001307    0.000984   -0.000000
siesta:     26   -0.004861   -0.005857    0.000000
siesta:     27   -0.002094    0.001865    0.000000
siesta:     28    0.000892   -0.000620   -0.000000
siesta:     29   -0.002906    0.001064   -0.000000
siesta: ----------------------------------------
siesta:    Tot    0.029275    0.163532    0.000000

siesta: Stress tensor (static) (eV/Ang**3):
siesta:     0.000004    0.000076   -0.000000
siesta:     0.000076   -0.000009    0.000000
siesta:    -0.000000   -0.000000   -0.000014

siesta: Cell volume =       4352.500882 Ang**3

siesta: Pressure (static):
siesta:                Solid            Molecule  Units
siesta:           0.00000007         -0.00000003  Ry/Bohr**3
siesta:           0.00000606         -0.00000318  eV/Ang**3
siesta:           0.00970936         -0.00508731  kBar
(Free)E+ p_basis*V_orbitals  =       -8793.427042
(Free)Eharris+ p_basis*V_orbitals  =       -8793.427042
     spin moment: {S} , |S| = {   -0.00000   -0.00000   -0.00000 }     0.00000

siesta: Electric dipole (a.u.)  =   -0.177213    1.660540   -0.000000
siesta: Electric dipole (Debye) =   -0.450432    4.220673   -0.000000

cite: Please see "GC.bib" for an exhaustive BiBTeX file.
cite: Please clearly indicate Siesta version in published work: 5.1-MaX-41-g6ad11e234
cite: This calculation has made use of the following articles
cite: which are encouraged to be cited in a published work.
        Primary SIESTA paper
          DOI: www.doi.org/10.1088/0953-8984/14/11/302
        Spin-orbit coupling (off-site approximation)
          DOI: www.doi.org/10.1088/0953-8984/24/8/086005
        ELPA library
          DOI: www.doi.org/10.1088/0953-8984/26/21/213201

>> End of run:  12-OCT-2024  16:28:31
Job completed