>> Start of run:  21-FEB-2022  20:17:35

reinit: Reading from standard input
reinit: Dumped input in INPUT_TMP.76017
************************** Dump of input data file ****************************
# Created by GDIS version 0.90.0
#
SystemLabel      GC
NumberOfAtoms    29
NumberOfSpecies  4
%block ChemicalSpeciesLabel
    1    1  H
    2    7  N
    3   14  Si
    4    8  O
%endblock ChemicalSpeciesLabel
AtomicCoordinatesFormat NotScaledCartesianAng
%block AtomicCoordinatesAndAtomicSpecies
    3.94714100  -12.25946036    0.00000000   1       1  H
    2.95465007  -11.88999670    0.00000000   2       2  N
    1.48967711  -12.94199689    0.00000000   3       3  Si
    1.75421626  -14.42202654    0.00000000   1       4  H
   -0.05322152  -12.21212880    0.00000000   2       5  N
    0.23910894  -10.42617377    0.00000000   3       6  Si
   -0.59841017   -8.35461444    0.00000000   3       7  Si
   -2.10291833   -7.75385815    0.00000000   4       8  O
    0.79619887   -7.15296065    0.00000000   2       9  N
    0.43803431   -6.13111981    0.00000000   1      10  H
    2.56694235   -7.31487372    0.00000000   3      11  Si
    3.42077958   -5.82297395    0.00000000   2      12  N
    2.99652671   -4.81386457    0.00000000   1      13  H
    4.47420864   -5.86021723    0.00000000   1      14  H
    3.48203520   -8.77013560    0.00000000   2      15  N
    2.42463703  -10.13944033    0.00000000   3      16  Si
    1.22962912   -0.62970904    0.00000000   1      17  H
    0.38894802   -1.27064293    0.00000000   2      18  N
   -1.23265227   -0.51966206    0.00000000   3      19  Si
   -1.14064090    0.98985603    0.00000000   1      20  H
   -2.95043619   -1.86508701    0.00000000   3      21  Si
   -4.38718139   -1.44136405    0.00000000   1      22  H
   -2.08286531   -3.95571087    0.00000000   3      23  Si
   -3.10290452   -5.33533162    0.00000000   2      24  N
   -2.71678336   -6.39866263    0.00000000   1      25  H
   -4.14965200   -5.22009336    0.00000000   1      26  H
   -0.37932488   -4.19109040    0.00000000   2      27  N
    0.86209208   -3.01027986    0.00000000   3      28  Si
    2.45359787   -3.24539018    0.00000000   4      29  O
%endblock AtomicCoordinatesAndAtomicSpecies
%include ../defaults.fdf
************************** End of input data file *****************************

reinit: -----------------------------------------------------------------------
reinit: System Name:
reinit: -----------------------------------------------------------------------
reinit: System Label: GC
reinit: -----------------------------------------------------------------------

initatom: Reading input for the pseudopotentials and atomic orbitals ----------
Species number:   1 Atomic number:    1 Label: H
Species number:   2 Atomic number:    7 Label: N
Species number:   3 Atomic number:   14 Label: Si
Species number:   4 Atomic number:    8 Label: O

Ground state valence configuration:   1s01
Reading pseudopotential information in formatted form from H.psf

Pseudopotential generated from a relativistic atomic calculation

Valence configuration for pseudopotential generation:
1s( 1.00) rc: 0.01
2p( 0.00) rc: 0.60
3d( 0.00) rc: 1.99
4f( 0.00) rc: 2.49
Ground state valence configuration:   2s02  2p03
Reading pseudopotential information in formatted form from N.psf

[...]

Valence configuration for pseudopotential generation:
3s( 2.00) rc: 1.67
3p( 2.00) rc: 2.04
3d( 0.00) rc: 2.89
4f( 0.00) rc: 0.25
Ground state valence configuration:   2s02  2p04
Reading pseudopotential information in formatted form from O.psf

Pseudopotential generated from a relativistic atomic calculation

Valence configuration for pseudopotential generation:
2s( 2.00) rc: 0.45
2p( 4.00) rc: 0.92
3d( 0.00) rc: 2.24
4f( 0.00) rc: 0.25
For H, standard SIESTA heuristics set lmxkb to 2
 (one more than the basis l, including polarization orbitals).
Use PS.lmax or PS.KBprojectors blocks to override.
For N, standard SIESTA heuristics set lmxkb to 3
 (one more than the basis l, including polarization orbitals).
Use PS.lmax or PS.KBprojectors blocks to override.
For Si, standard SIESTA heuristics set lmxkb to 3
 (one more than the basis l, including polarization orbitals).
Use PS.lmax or PS.KBprojectors blocks to override.
For O, standard SIESTA heuristics set lmxkb to 3
 (one more than the basis l, including polarization orbitals).
Use PS.lmax or PS.KBprojectors blocks to override.

<basis_specs>
H                    Z=   1    Mass=  1.0100        Charge= 0.17977+309
Lmxo=0 Lmxkb= 2    BasisType=split      Semic=F
L=0  Nsemic=0  Cnfigmx=1
          i=1  nzeta=2  polorb=1  (1s)
            splnorm:   0.62000
               vcte:    0.0000
               rinn:    0.0000
               qcoe:    0.0000
               qyuk:    0.0000
               qwid:   0.10000E-01
                rcs:    0.0000      0.0000
            lambdas:    1.0000      1.0000
L=0  Nkbl=1  erefs: 0.17977+309
L=1  Nkbl=1  erefs: 0.17977+309
L=2  Nkbl=1  erefs: 0.17977+309
</basis_specs>

atom: Called for H                     (Z =   1)

read_vps: Pseudopotential generation method:
read_vps: ATM4.2.7  Troullier-Martins
Valence charge for ps generation:    1.00000

xc_check: Exchange-correlation functional:
xc_check: GGA Perdew, Burke & Ernzerhof 1996
V l=0 = -2*Zval/r beyond r=  0.0098
V l=1 = -2*Zval/r beyond r=  0.5817
V l=2 = -2*Zval/r beyond r=  1.9372
All V_l potentials equal beyond r=  1.9372
This should be close to max(r_c) in ps generation
All pots = -2*Zval/r beyond r=  1.9372

VLOCAL1: 99.0% of the norm of Vloc inside     11.567 Ry
VLOCAL1: 99.9% of the norm of Vloc inside     26.362 Ry
atom: Maximum radius for 4*pi*r*r*local-pseudopot. charge    2.25106
atom: Maximum radius for r*vlocal+2*Zval:    1.91306
GHOST: No ghost state for L =  0
GHOST: No ghost state for L =  1
GHOST: No ghost state for L =  2

KBgen: Kleinman-Bylander projectors:
   l= 0   rc=  2.036604   el= -0.477180   Ekb= -6.081590   kbcos= -0.277285
   l= 1   rc=  2.195416   el=  0.001076   Ekb= -0.926943   kbcos= -0.034643
   l= 2   rc=  2.251056   el=  0.002010   Ekb= -0.130941   kbcos= -0.009788

KBgen: Total number of Kleinman-Bylander projectors:    9
atom: -------------------------------------------------------------------------

atom: SANKEY-TYPE ORBITALS:
atom: Selected multiple-zeta basis: split

SPLIT: Orbitals with angular momentum L= 0

SPLIT: Basis orbitals for state 1s

SPLIT: PAO cut-off radius determined from an
SPLIT: energy shift=  0.002000 Ry

   izeta = 1
                 lambda =    1.000000
                     rc =    6.518340
                 energy =   -0.475305
                kinetic =    0.912139
    potential(screened) =   -1.387444
       potential(ionic) =   -1.907295

   izeta = 2
                 rmatch =    2.141150
              splitnorm =    0.620000
                 energy =    0.566467
                kinetic =    3.772856
    potential(screened) =   -3.206389
       potential(ionic) =   -3.759093

POLgen: Perturbative polarization orbital with L=  1

POLgen: Polarization orbital for state 1s

   izeta = 1
                     rc =    6.518340
                 energy =    0.533861
                kinetic =    1.121086
    potential(screened) =   -0.587225
       potential(ionic) =   -1.053027
atom: Total number of Sankey-type orbitals:  5

atm_pop: Valence configuration (for local Pseudopot. screening):
 1s( 1.00)
Vna: chval, zval:    1.00000   1.00000

Vna:  Cut-off radius for the neutral-atom potential:   6.518340

atom: _________________________________________________________________________

<basis_specs>
N                    Z=   7    Mass=  14.010        Charge= 0.17977+309
Lmxo=1 Lmxkb= 3    BasisType=split      Semic=F
L=0  Nsemic=0  Cnfigmx=2
          i=1  nzeta=2  polorb=0  (2s)
            splnorm:   0.28000
               vcte:    0.0000
               rinn:    0.0000
               qcoe:    0.0000
               qyuk:    0.0000
               qwid:   0.10000E-01
                rcs:    0.0000      0.0000
            lambdas:    1.0000      1.0000
L=1  Nsemic=0  Cnfigmx=2
          i=1  nzeta=2  polorb=1  (2p)
            splnorm:   0.28000
               vcte:    0.0000
               rinn:    0.0000
               qcoe:    0.0000
               qyuk:    0.0000
               qwid:   0.10000E-01
                rcs:    0.0000      0.0000
            lambdas:    1.0000      1.0000
L=0  Nkbl=1  erefs: 0.17977+309
L=1  Nkbl=1  erefs: 0.17977+309
L=2  Nkbl=1  erefs: 0.17977+309
L=3  Nkbl=1  erefs: 0.17977+309
</basis_specs>

[...]

KBgen: Kleinman-Bylander projectors:
   l= 0   rc=  3.417763   el= -1.365098   Ekb= -4.433130   kbcos= -0.707855
   l= 1   rc=  3.375302   el= -0.521201   Ekb=-13.264039   kbcos= -0.535594
   l= 2   rc=  3.872880   el=  0.001991   Ekb= -0.641094   kbcos= -0.062456
   l= 3   rc=  3.970931   el=  0.003093   Ekb= -0.474517   kbcos= -0.018236

[...]

SPLIT: Basis orbitals for state 2p

[...]

POLgen: Polarization orbital for state 2p

[...]

atm_pop: Valence configuration (for local Pseudopot. screening):
 2s( 2.00)
 2p( 3.00)
Vna: chval, zval:    5.00000   5.00000

[...]

KBgen: Kleinman-Bylander projectors:
   l= 0   rc=  3.075247   el= -0.794092   Ekb=  5.879390   kbcos=  0.167461
   l= 1   rc=  3.153101   el= -0.300068   Ekb=  2.642817   kbcos=  0.058301
   l= 2   rc=  3.273594   el=  0.001958   Ekb= -1.185135   kbcos= -0.104411
   l= 3   rc=  3.232927   el=  0.003046   Ekb= -1.061051   kbcos= -0.011037

[...]

<basis_specs>
O                    Z=   8    Mass=  16.000        Charge= 0.17977+309
Lmxo=1 Lmxkb= 3    BasisType=split      Semic=F
L=0  Nsemic=0  Cnfigmx=2
          i=1  nzeta=2  polorb=0  (2s)
            splnorm:   0.28000
               vcte:    0.0000
               rinn:    0.0000
               qcoe:    0.0000
               qyuk:    0.0000
               qwid:   0.10000E-01
                rcs:    0.0000      0.0000
            lambdas:    1.0000      1.0000
L=1  Nsemic=0  Cnfigmx=2
          i=1  nzeta=2  polorb=1  (2p)
            splnorm:   0.28000
               vcte:    0.0000
               rinn:    0.0000
               qcoe:    0.0000
               qyuk:    0.0000
               qwid:   0.10000E-01
                rcs:    0.0000      0.0000
            lambdas:    1.0000      1.0000
L=0  Nkbl=1  erefs: 0.17977+309
L=1  Nkbl=1  erefs: 0.17977+309
L=2  Nkbl=1  erefs: 0.17977+309
L=3  Nkbl=1  erefs: 0.17977+309
</basis_specs>

atom: Called for O                     (Z =   8)

read_vps: Pseudopotential generation method:
read_vps: ATM4.2.7  Troullier-Martins
Valence charge for ps generation:    6.00000

xc_check: Exchange-correlation functional:
xc_check: GGA Perdew, Burke & Ernzerhof 1996
V l=0 = -2*Zval/r beyond r=  1.1000
V l=1 = -2*Zval/r beyond r=  1.1000
V l=2 = -2*Zval/r beyond r=  2.2154
V l=3 = -2*Zval/r beyond r=  1.1000
All V_l potentials equal beyond r=  2.2154
This should be close to max(r_c) in ps generation
All pots = -2*Zval/r beyond r=  2.2154

VLOCAL1: 99.0% of the norm of Vloc inside      8.845 Ry
VLOCAL1: 99.9% of the norm of Vloc inside     20.157 Ry
atom: Maximum radius for 4*pi*r*r*local-pseudopot. charge    2.67231
[...]
          15      92:  100  105:  122   20:   60
          16       1:    9   85:  104    1:   22
          17      19:   85   87:  104    1:   19
          18      86:  100   87:  104    1:   19
          19       1:   11  105:  119   19:   60
          20      19:   85   87:  104   20:   60
          21      10:   18    1:   84   22:   60
          22      76:   91  105:  122   20:   60
          23      86:  100   87:  104   20:   60
          24      92:  100  105:  122    1:   19
          25      12:   75  105:  119    1:   18
          26      76:   91  105:  122    1:   19
          27      91:  100  123:  144   24:   60
          28      10:   75  120:  144   20:   60
          29      12:   75  105:  119   19:   60
          30      76:   90  123:  144   24:   60
          31       1:    9  120:  144   20:   60
          32       1:   11  105:  119    1:   18
New grid distribution:   3
           1      89:  100    1:   67    1:   25
           2       1:   15  118:  144   27:   60
           3      86:  100   68:   96    1:   26
           4      30:   88    1:   67   26:   60
           5      12:   29    1:   68   26:   60
           6      89:  100    1:   67   26:   60
           7      83:  100  123:  144   28:   60
           8       1:   16  118:  144    1:   26
           9      30:   88    1:   67    1:   25
          10       1:   14   69:   96   28:   60
          11      15:   29   69:   96    1:   27
          12       1:   11    1:   68   26:   60
          13      12:   29    1:   68    1:   25
          14       1:   11    1:   68    1:   25
          15      87:  100   68:   96   27:   60
          16       1:   20   97:  117    1:   26
          17      30:   85   68:   96    1:   26
          18      21:   62   97:  117    1:   26
          19      84:  100   97:  122    1:   26
          20      15:   29   69:   96   28:   60
          21      30:   86   68:   96   27:   60
          22      21:   62   97:  117   27:   60
          23       1:   20   97:  117   27:   60
          24      83:  100  123:  144    1:   27
          25      17:   62  118:  144    1:   26
          26      63:   83   97:  122    1:   26
          27      63:   82  123:  144    1:   27
          28      63:   82  123:  144   28:   60
          29      16:   62  118:  144   27:   60
          30      63:   84   97:  122   27:   60
          31      85:  100   97:  122   27:   60
          32       1:   14   69:   96    1:   27
Setting up quadratic distribution...
ExtMesh (bp) on 0 =   119 x   194 x   132 =     3047352
PhiOnMesh: Number of (b)points on node 0 =                25800
PhiOnMesh: nlist on node 0 =               430387

        iscf     Eharris(eV)        E_KS(eV)     FreeEng(eV)     dDmax    Ef(eV) dHmax(eV)
   scf:    1    -4148.109310    -4148.108352    -4148.108352  0.000073 -3.805846  0.001894
     spin moment: S , {S} =   -0.00000       0.0       0.0  -0.00000
   scf:    2    -4148.108344    -4148.108350    -4148.108350  0.000087 -3.805477  0.006616
     spin moment: S , {S} =   -0.00000       0.0       0.0  -0.00000
   scf:    3    -4148.108353    -4148.108353    -4148.108353  0.000064 -3.805686  0.000249
     spin moment: S , {S} =    0.00000       0.0       0.0   0.00000

SCF Convergence by DM+H criterion
max |DM_out - DM_in|         :     0.0000641185
max |H_out - H_in|      (eV) :     0.0002488304
SCF cycle converged after 3 iterations

Using DM_out to compute the final energy and forces
No. of atoms with KB's overlaping orbs in proc 0. Max # of overlaps:      19     206

siesta: E_KS(eV) =            -4148.1084
     spin moment: S , {S} =    0.00000       0.0       0.0   0.00000

siesta: Atomic forces (eV/Ang):
     1    0.000188    0.000403    0.000000
     2    0.000318   -0.000179    0.000003
     3    0.000315   -0.000325    0.000009
     4    0.000554    0.000833   -0.000000
     5   -0.000291    0.001235    0.000012
     6    0.000539    0.000167   -0.000049
     7    0.000370    0.000821    0.000022
     8   -0.001216   -0.003295   -0.000020
     9    0.001610   -0.003979   -0.000000
    10   -0.001928    0.002858   -0.000000
    11   -0.000334    0.000397    0.000001
    12   -0.000576    0.000312    0.000000
    13    0.002124    0.001334    0.000000
    14   -0.001469   -0.000997    0.000000
    15    0.001259    0.002110   -0.000004
    16    0.000842    0.000067    0.000010
    17   -0.000105    0.003208    0.000000
    18   -0.001438   -0.000228   -0.000000
    19   -0.001279   -0.001969    0.000001
    20   -0.002023   -0.002217   -0.000000
    21   -0.001401   -0.002997   -0.000004
    22    0.004151    0.000261   -0.000000
    23    0.000795    0.002092    0.000000
    24   -0.001256    0.001354   -0.000000
    25   -0.000641    0.000664    0.000000
    26    0.000224   -0.000816   -0.000000
    27   -0.001112    0.000415    0.000000
    28   -0.000142    0.001535    0.000001
    29    0.004211   -0.002535   -0.000040
   Tot    0.002291    0.000530   -0.000058
   Max    0.004211
   Res    0.001343    sqrt( Sum f_i^2 / 3N )
   Max    0.004211    constrained

Stress tensor Voigt[x,y,z,yz,xz,xy] (kbar):       -0.45        0.56       -0.14       -0.00       -0.00        0.15
(Free)E + p*V (eV/cell)    -4148.0862
Target enthalpy (eV/cell)    -4148.1084

mulliken: Atomic and Orbital Populations:

mulliken: Spin UP

[...]

mulliken: Spin DOWN

Species: H
Atom  Qatom  Qorb
   1  0.395   0.254   0.094   0.013   0.020   0.013
   4  0.594   0.510   0.048   0.019   0.010   0.007
  10  0.392   0.242   0.089   0.028   0.015   0.018
  13  0.392   0.226   0.090   0.044   0.021   0.011
  14  0.384   0.243   0.098   0.008   0.024   0.012
  17  0.382   0.244   0.095   0.014   0.017   0.012
  20  0.599   0.524   0.042   0.017   0.009   0.006
  22  0.607   0.530   0.037   0.009   0.015   0.015
  25  0.400   0.218   0.086   0.057   0.022   0.019
  26  0.392   0.249   0.097   0.009   0.024   0.013

[...]

Species: O
Atom  Qatom  Qorb
               3Pdxy   3Pdyz   3Pdz2   3Pdxz   3Pdx2-y2
   8  3.252   0.861   0.033   0.799   0.809   0.706   0.006  -0.009   0.034
              0.004   0.000   0.001   0.004   0.004
  29  3.257   0.872   0.030   0.823   0.798   0.696   0.001  -0.006   0.031
              0.003  -0.000   0.001   0.004   0.004

mulliken: Qtot =       49.000

outcoor: Relaxed atomic coordinates (Ang):
    3.98684047  -12.27005906    0.00000003   1       1  H
    3.00244836  -11.88029973    0.00000037   2       2  N
    1.52382672  -12.91780311    0.00000699   3       3  Si
    1.73484581  -14.40060600    0.00000001   1       4  H
   -0.02006390  -12.19063720    0.00000760   2       5  N
    0.30800967  -10.41739651   -0.00001811   3       6  Si
   -0.50359224   -8.35597165    0.00001051   3       7  Si
   -1.99344690   -7.75429661    0.00000021   4       8  O
    0.85278313   -7.12949531   -0.00000027   2       9  N
    0.43491280   -6.13476731   -0.00000009   1      10  H
    2.61846198   -7.27255347   -0.00000008   3      11  Si
    3.45792699   -5.76904913    0.00000018   2      12  N
    3.03048577   -4.77128420    0.00000000   1      13  H
    4.50890532   -5.79515462   -0.00000000   1      14  H
    3.52922130   -8.73064868   -0.00000191   2      15  N
    2.48798282  -10.11777443    0.00000431   3      16  Si
    1.12686841   -0.59504520   -0.00000000   1      17  H
    0.27609707   -1.22508741    0.00000007   2      18  N
   -1.34750014   -0.49232225    0.00000080   3      19  Si
   -1.22699537    1.01289662    0.00000002   1      20  H
   -3.07540971   -1.83790103   -0.00000269   3      21  Si
   -4.50605321   -1.36381863    0.00000003   1      22  H
   -2.18313348   -3.93175571    0.00000008   3      23  Si
   -3.14051534   -5.35811807    0.00000000   2      24  N
   -2.68659583   -6.38933021    0.00000002   1      25  H
   -4.19222836   -5.30002149    0.00000003   1      26  H
   -0.47882602   -4.15058218    0.00000020   2      27  N
    0.74907261   -2.96060422    0.00000014   3      28  Si
    2.33915141   -3.15457734    0.00000030   4      29  O

coxmol: Writing XMOL coordinates into file GC.xyz

siesta: Eigenvalues (eV):
  ik is       eps
   1  1  -22.6747  -22.4533  -21.3553  -21.2515  -21.0466  -20.6828  -20.3733  -19.6159  -19.5344  -19.4368
         -14.7323  -13.8787  -13.2098  -13.1079  -12.8971  -12.7134  -12.6305  -12.0230  -11.8092  -11.7090
  -11.0916  -10.8053  -10.6562  -10.4510  -10.1225   -9.6338   -9.1816   -9.0001   -8.8579   -8.6167
   -8.5164   -8.4404   -8.3386   -8.0299   -7.8667   -7.5678   -7.4090   -7.2645   -7.0679   -6.9037
   -6.6636   -6.6404   -6.4372   -6.4165   -6.3199   -6.1317   -6.0021   -5.5137   -4.3740   -3.2376
   -2.4021   -2.3114   -2.1982   -1.9533   -1.9130   -1.8327   -1.8022   -1.6052   -1.2333   -1.1851
   -0.9876   -0.6245   -0.4258   -0.3516    0.4337    0.4453    0.5595    0.7111    0.9956    1.2038
    1.3684    1.3967    1.4132    1.4841    1.9608    2.0770    2.6067    2.6670    2.7213    2.8753
    2.9022    2.9652    3.1941    3.3818    3.4621    3.7825    4.0484    4.1345    4.1475    4.4684
    4.5844    4.6275    4.7527    5.0432    5.2324    5.2443    5.3721    5.6882    5.7600    5.8791
    6.0026    6.2562    6.3666    6.5032    6.6515    6.7314    6.8298    6.9642    7.0986    7.1764
    7.1958    7.6861    7.6912    7.9287    8.0463    8.0909    8.2671    8.4905    8.6146    8.6335
    8.7991    8.8644    9.0982    9.1141    9.2883    9.4510    9.8740    9.9376   10.0336   10.1153
   10.2473   10.5822   10.7888   11.1810   11.3029   11.3670   11.4439   12.2489   12.2565   12.3661
   12.3983   12.6458   12.7530   13.1105   13.2106   13.5022   13.6534   13.7857   14.0453   14.1075
   14.2660   14.4056   14.8701   15.0256   15.0455   15.5908   16.2509   16.6203   16.6380   16.8881
   17.0370   17.3708   17.8078   18.5798   18.9014   19.3726   19.9667   20.1711   20.3945   20.7331
   21.3791   21.9521   22.1834   22.7207   23.2670   23.6374   23.7930   24.0608   24.5961   25.2583
   25.8722   26.2793   26.9086   27.5643   28.6667   29.3931   29.6822   30.0360   30.3028   30.7221
   30.9040   30.9201   31.3439   31.4917   31.6407   32.5286   32.9306   33.6121   33.9196   34.0072
   35.2236   35.4174   35.5597   35.9473   36.1247   36.6486   36.9079   36.9686   37.3140   38.4089
   38.7916   38.9766   39.6423   39.8792   39.9335   40.3006   40.5199   40.9758   41.5619   41.6234
   41.9711   42.4100   42.6450   43.3986   43.7525   43.8753   44.2028   44.3622   44.4573   44.7012
   45.0766   45.3426   45.5312   46.2307   46.5067   46.9414   47.6415   47.8085   48.6258   49.4783
   49.8831   50.4054   50.5781   50.8709   51.0947   51.3974   51.5058   52.4605   52.8827   54.0121
   54.1712   54.2119   55.3581   55.5794   55.9385   56.1021   56.6614   58.2618   58.4501   58.7760
   60.1606   60.3176   60.5802   61.2297   61.8361   62.3773   62.9153   62.9746   63.4410   65.8371
   66.5903   67.4296   68.6872   68.9953   69.1663   70.5284   71.1611   71.4999   75.5171   85.1177
   89.2026   89.7383   93.3483   94.3482   96.5237  100.0007  100.2392  102.7027  103.8431  105.6941
  114.2670  117.3501  124.2932  128.2670  138.5213  144.9107  147.0189
   1  2  -22.6747  -22.4533  -21.3553  -21.2515  -21.0466  -20.6828  -20.3733  -19.6159  -19.5344  -19.4368
         -14.7323  -13.8787  -13.2098  -13.1079  -12.8971  -12.7134  -12.6305  -12.0230  -11.8092  -11.7090
  -11.0916  -10.8053  -10.6562  -10.4510  -10.1225   -9.6338   -9.1816   -9.0001   -8.8579   -8.6167
   -8.5164   -8.4404   -8.3386   -8.0299   -7.8667   -7.5678   -7.4090   -7.2645   -7.0679   -6.9037
   -6.6636   -6.6404   -6.4372   -6.4165   -6.3199   -6.1317   -6.0021   -5.5137   -4.3740   -3.2376
   -2.4021   -2.3114   -2.1982   -1.9533   -1.9130   -1.8327   -1.8022   -1.6052   -1.2333   -1.1851
   -0.9876   -0.6245   -0.4258   -0.3516    0.4337    0.4453    0.5595    0.7111    0.9956    1.2038
    1.3684    1.3967    1.4132    1.4841    1.9608    2.0770    2.6067    2.6670    2.7213    2.8753
    2.9022    2.9652    3.1941    3.3818    3.4621    3.7825    4.0484    4.1345    4.1475    4.4684
    4.5844    4.6275    4.7527    5.0432    5.2324    5.2443    5.3721    5.6882    5.7600    5.8791
    6.0026    6.2562    6.3666    6.5032    6.6515    6.7314    6.8298    6.9642    7.0986    7.1764
    7.1958    7.6861    7.6912    7.9287    8.0463    8.0909    8.2671    8.4905    8.6146    8.6335
    8.7991    8.8644    9.0982    9.1141    9.2883    9.4510    9.8740    9.9376   10.0336   10.1153
   10.2473   10.5822   10.7888   11.1810   11.3029   11.3670   11.4439   12.2489   12.2565   12.3661
   12.3983   12.6458   12.7530   13.1105   13.2106   13.5022   13.6534   13.7857   14.0453   14.1075
   14.2660   14.4056   14.8701   15.0256   15.0455   15.5908   16.2509   16.6203   16.6380   16.8881
   17.0370   17.3708   17.8078   18.5798   18.9014   19.3726   19.9667   20.1711   20.3945   20.7331
   21.3791   21.9521   22.1834   22.7207   23.2670   23.6374   23.7930   24.0608   24.5961   25.2583
   25.8722   26.2793   26.9086   27.5643   28.6667   29.3931   29.6822   30.0360   30.3028   30.7221
   30.9040   30.9201   31.3439   31.4917   31.6407   32.5286   32.9306   33.6121   33.9196   34.0072
   35.2236   35.4174   35.5597   35.9473   36.1247   36.6486   36.9079   36.9686   37.3140   38.4089
   38.7916   38.9766   39.6423   39.8792   39.9335   40.3006   40.5199   40.9758   41.5619   41.6234
   41.9711   42.4100   42.6450   43.3986   43.7525   43.8753   44.2028   44.3622   44.4573   44.7012
   45.0766   45.3426   45.5312   46.2307   46.5067   46.9414   47.6415   47.8085   48.6258   49.4783
   49.8831   50.4054   50.5781   50.8709   51.0947   51.3974   51.5058   52.4605   52.8827   54.0121
   54.1712   54.2119   55.3581   55.5794   55.9385   56.1021   56.6614   58.2618   58.4501   58.7760
   60.1606   60.3176   60.5802   61.2297   61.8361   62.3773   62.9153   62.9746   63.4410   65.8371
   66.5903   67.4296   68.6872   68.9953   69.1663   70.5284   71.1611   71.4999   75.5171   85.1177
   89.2026   89.7383   93.3483   94.3482   96.5237  100.0007  100.2392  102.7027  103.8431  105.6941
  114.2670  117.3501  124.2932  128.2670  138.5213  144.9107  147.0189
siesta: Fermi energy =      -3.805686 eV

siesta: Program's energy decomposition (eV):
siesta: Ebs     =     -1134.910801
siesta: Eions   =      3585.165840
siesta: Ena     =       381.805044
siesta: Ekin    =      2909.919451
siesta: Enl     =     -2794.050529
siesta: Eso     =         0.000000
siesta: Edftu   =         0.000000
siesta: DEna    =        47.950206
siesta: DUscf   =        13.675631
siesta: DUext   =         0.000000
siesta: Exc     =     -1122.242316
siesta: eta*DQ  =         0.000000
siesta: Emadel  =         0.000000
siesta: Emeta   =         0.000000
siesta: Emolmec =         0.000000
siesta: Ekinion =         0.000000
siesta: Eharris =     -4148.108353
siesta: Etot    =     -4148.108353
siesta: FreeEng =     -4148.108353

siesta: Final energy (eV):
siesta:  Band Struct. =   -1134.910801
siesta:       Kinetic =    2909.919451
siesta:       Hartree =    8896.475761
siesta:       Edftu   =       0.000000
siesta:       Eso     =       0.000000
siesta:    Ext. field =       0.000000
siesta:   Exch.-corr. =   -1122.242316
siesta:  Ion-electron =  -20380.809180
siesta:       Ion-ion =    5548.547931
siesta:       Ekinion =       0.000000
siesta:         Total =   -4148.108353
siesta:         Fermi =      -3.805686

siesta: Stress tensor (static) (eV/Ang**3):
siesta:    -0.000278    0.000091   -0.000000
siesta:     0.000091    0.000349   -0.000000
siesta:    -0.000000   -0.000000   -0.000086

siesta: Cell volume =       4192.742521 Ang**3

siesta: Pressure (static):
siesta:                Solid            Molecule  Units
siesta:           0.00000006          0.00000007  Ry/Bohr**3
siesta:           0.00000528          0.00000680  eV/Ang**3
siesta:           0.00846190          0.01089108  kBar
(Free)E+ p_basis*V_orbitals  =       -4128.257935
(Free)Eharris+ p_basis*V_orbitals  =       -4128.257936
     spin moment: S , {S} =    0.00000       0.0       0.0   0.00000

siesta: Electric dipole (a.u.)  =    0.227583    1.305447    0.000008
siesta: Electric dipole (Debye) =    0.578459    3.318117    0.000019

cite: Please see "GC.bib" for an exhaustive BiBTeX file.
cite: Please clearly indicate Siesta version in published work: v4.1.5-1-g384057250
cite: This calculation has made use of the following articles
cite: which are encouraged to be cited in a published work.
        Primary SIESTA paper
          DOI: www.doi.org/10.1088/0953-8984/14/11/302

WARNING: alloc-realloc-dealloc name mismatch
         Name: atomlist isa
         Node:     0
         Subsequent mismatches will not be reported
>> End of run:  21-FEB-2022  20:42:15
Job completed