>> Start of run:  19-FEB-2022  20:43:08

reinit: Reading from standard input
reinit: Dumped input in INPUT_TMP.08757
************************** Dump of input data file ****************************
# Created by GDIS version 0.90.0
#
SystemLabel      T
NumberOfAtoms    15
NumberOfSpecies  4
%block ChemicalSpeciesLabel
    1    1  H
    2    7  N
    3   14  Si
    4    8  O
%endblock ChemicalSpeciesLabel
AtomicCoordinatesFormat NotScaledCartesianAng
%block AtomicCoordinatesAndAtomicSpecies
    1.79173585    5.60323035   -0.00000000   1       1  H
    0.97119750    4.93506455   -0.00000000   2       2  N
   -0.67958080    5.62639246    0.00000000   3       3  Si
   -0.51240826    7.11820847   -0.00000000   1       4  H
   -2.50802121    4.53686304    0.00000000   3       5  Si
   -4.32543081    5.42319196   -0.00000000   3       6  Si
   -4.61021074    4.89459658   -1.40102070   1       7  H
   -5.46526313    5.07192868    0.85952966   1       8  H
   -4.18347597    6.93859610   -0.08656521   1       9  H
   -1.83428341    2.41646264    0.00000000   3      10  Si
   -2.81413830    1.15961498    0.00000000   4      11  O
   -0.00350333    2.18358804    0.00000000   2      12  N
    0.25612040    1.15588184    0.00000000   1      13  H
    1.45563846    3.20596350    0.00000000   3      14  Si
    2.98474761    2.75898924   -0.00000000   4      15  O
%endblock AtomicCoordinatesAndAtomicSpecies
%include ../defaults.fdf
************************** End of input data file *****************************

reinit: -----------------------------------------------------------------------
reinit: System Name:
reinit: -----------------------------------------------------------------------
reinit: System Label: T
reinit: -----------------------------------------------------------------------

initatom: Reading input for the pseudopotentials and atomic orbitals ----------
Species number:   1 Atomic number:    1 Label: H
Species number:   2 Atomic number:    7 Label: N
Species number:   3 Atomic number:   14 Label: Si
Species number:   4 Atomic number:    8 Label: O

Ground state valence configuration:   1s01
Reading pseudopotential information in formatted form from H.psf

Pseudopotential generated from a relativistic atomic calculation

Valence configuration for pseudopotential generation:
1s( 1.00) rc: 0.01
2p( 0.00) rc: 0.60
3d( 0.00) rc: 1.99
4f( 0.00) rc: 2.49
Ground state valence configuration:   2s02  2p03
Reading pseudopotential information in formatted form from N.psf

[...]

Valence configuration for pseudopotential generation:
3s( 2.00) rc: 1.67
3p( 2.00) rc: 2.04
3d( 0.00) rc: 2.89
4f( 0.00) rc: 0.25
Ground state valence configuration:   2s02  2p04
Reading pseudopotential information in formatted form from O.psf

Pseudopotential generated from a relativistic atomic calculation

Valence configuration for pseudopotential generation:
2s( 2.00) rc: 0.45
2p( 4.00) rc: 0.92
3d( 0.00) rc: 2.24
4f( 0.00) rc: 0.25
For H, standard SIESTA heuristics set lmxkb to 2
 (one more than the basis l, including polarization orbitals).
Use PS.lmax or PS.KBprojectors blocks to override.
For N, standard SIESTA heuristics set lmxkb to 3
 (one more than the basis l, including polarization orbitals).
Use PS.lmax or PS.KBprojectors blocks to override.
For Si, standard SIESTA heuristics set lmxkb to 3
 (one more than the basis l, including polarization orbitals).
Use PS.lmax or PS.KBprojectors blocks to override.
For O, standard SIESTA heuristics set lmxkb to 3
 (one more than the basis l, including polarization orbitals).
Use PS.lmax or PS.KBprojectors blocks to override.

<basis_specs>
H                    Z=   1    Mass=  1.0100        Charge= 0.17977+309
Lmxo=0 Lmxkb= 2    BasisType=split      Semic=F
L=0  Nsemic=0  Cnfigmx=1
          i=1  nzeta=2  polorb=1  (1s)
            splnorm:   0.62000
               vcte:    0.0000
               rinn:    0.0000
               qcoe:    0.0000
               qyuk:    0.0000
               qwid:   0.10000E-01
                rcs:    0.0000      0.0000
            lambdas:    1.0000      1.0000
L=0  Nkbl=1  erefs: 0.17977+309
L=1  Nkbl=1  erefs: 0.17977+309
L=2  Nkbl=1  erefs: 0.17977+309
</basis_specs>

atom: Called for H                     (Z =   1)

read_vps: Pseudopotential generation method:
read_vps: ATM4.2.7  Troullier-Martins
Valence charge for ps generation:    1.00000

xc_check: Exchange-correlation functional:
xc_check: GGA Perdew, Burke & Ernzerhof 1996
V l=0 = -2*Zval/r beyond r=  0.0098
V l=1 = -2*Zval/r beyond r=  0.5817
V l=2 = -2*Zval/r beyond r=  1.9372
All V_l potentials equal beyond r=  1.9372
This should be close to max(r_c) in ps generation
All pots = -2*Zval/r beyond r=  1.9372

VLOCAL1: 99.0% of the norm of Vloc inside     11.567 Ry
VLOCAL1: 99.9% of the norm of Vloc inside     26.362 Ry
atom: Maximum radius for 4*pi*r*r*local-pseudopot. charge    2.25106
atom: Maximum radius for r*vlocal+2*Zval:    1.91306
GHOST: No ghost state for L =  0
GHOST: No ghost state for L =  1
GHOST: No ghost state for L =  2

KBgen: Kleinman-Bylander projectors:
   l= 0   rc=  2.036604   el= -0.477180   Ekb= -6.081590   kbcos= -0.277285
   l= 1   rc=  2.195416   el=  0.001076   Ekb= -0.926943   kbcos= -0.034643
   l= 2   rc=  2.251056   el=  0.002010   Ekb= -0.130941   kbcos= -0.009788

KBgen: Total number of Kleinman-Bylander projectors:    9
atom: -------------------------------------------------------------------------

atom: SANKEY-TYPE ORBITALS:
atom: Selected multiple-zeta basis: split

SPLIT: Orbitals with angular momentum L= 0

SPLIT: Basis orbitals for state 1s

SPLIT: PAO cut-off radius determined from an
SPLIT: energy shift=  0.002000 Ry

   izeta = 1
                 lambda =    1.000000
                     rc =    6.518340
                 energy =   -0.475305
                kinetic =    0.912139
    potential(screened) =   -1.387444
       potential(ionic) =   -1.907295

   izeta = 2
                 rmatch =    2.141150
              splitnorm =    0.620000
                 energy =    0.566467
                kinetic =    3.772856
    potential(screened) =   -3.206389
       potential(ionic) =   -3.759093

POLgen: Perturbative polarization orbital with L=  1

POLgen: Polarization orbital for state 1s

   izeta = 1
                     rc =    6.518340
                 energy =    0.533861
                kinetic =    1.121086
    potential(screened) =   -0.587225
       potential(ionic) =   -1.053027
atom: Total number of Sankey-type orbitals:  5

atm_pop: Valence configuration (for local Pseudopot. screening):
 1s( 1.00)
Vna: chval, zval:    1.00000   1.00000

Vna:  Cut-off radius for the neutral-atom potential:   6.518340

atom: _________________________________________________________________________

<basis_specs>
N                    Z=   7    Mass=  14.010        Charge= 0.17977+309
Lmxo=1 Lmxkb= 3    BasisType=split      Semic=F
L=0  Nsemic=0  Cnfigmx=2
          i=1  nzeta=2  polorb=0  (2s)
            splnorm:   0.28000
               vcte:    0.0000
               rinn:    0.0000
               qcoe:    0.0000
               qyuk:    0.0000
               qwid:   0.10000E-01
                rcs:    0.0000      0.0000
            lambdas:    1.0000      1.0000
L=1  Nsemic=0  Cnfigmx=2
          i=1  nzeta=2  polorb=1  (2p)
            splnorm:   0.28000
               vcte:    0.0000
               rinn:    0.0000
               qcoe:    0.0000
               qyuk:    0.0000
               qwid:   0.10000E-01
                rcs:    0.0000      0.0000
            lambdas:    1.0000      1.0000
L=0  Nkbl=1  erefs: 0.17977+309
L=1  Nkbl=1  erefs: 0.17977+309
L=2  Nkbl=1  erefs: 0.17977+309
L=3  Nkbl=1  erefs: 0.17977+309
</basis_specs>

[...]

KBgen: Kleinman-Bylander projectors:
   l= 0   rc=  3.417763   el= -1.365098   Ekb= -4.433130   kbcos= -0.707855
   l= 1   rc=  3.375302   el= -0.521201   Ekb=-13.264039   kbcos= -0.535594
   l= 2   rc=  3.872880   el=  0.001991   Ekb= -0.641094   kbcos= -0.062456
   l= 3   rc=  3.970931   el=  0.003093   Ekb= -0.474517   kbcos= -0.018236

[...]

SPLIT: Basis orbitals for state 2p

[...]

POLgen: Polarization orbital for state 2p

[...]

atm_pop: Valence configuration (for local Pseudopot. screening):
 2s( 2.00)
 2p( 3.00)
Vna: chval, zval:    5.00000   5.00000

[...]

KBgen: Kleinman-Bylander projectors:
   l= 0   rc=  3.075247   el= -0.794092   Ekb=  5.879390   kbcos=  0.167461
   l= 1   rc=  3.153101   el= -0.300068   Ekb=  2.642817   kbcos=  0.058301
   l= 2   rc=  3.273594   el=  0.001958   Ekb= -1.185135   kbcos= -0.104411
   l= 3   rc=  3.232927   el=  0.003046   Ekb= -1.061051   kbcos= -0.011037

[...]

<basis_specs>
O                    Z=   8    Mass=  16.000        Charge= 0.17977+309
Lmxo=1 Lmxkb= 3    BasisType=split      Semic=F
L=0  Nsemic=0  Cnfigmx=2
          i=1  nzeta=2  polorb=0  (2s)
            splnorm:   0.28000
               vcte:    0.0000
               rinn:    0.0000
               qcoe:    0.0000
               qyuk:    0.0000
               qwid:   0.10000E-01
                rcs:    0.0000      0.0000
            lambdas:    1.0000      1.0000
L=1  Nsemic=0  Cnfigmx=2
          i=1  nzeta=2  polorb=1  (2p)
            splnorm:   0.28000
               vcte:    0.0000
               rinn:    0.0000
               qcoe:    0.0000
               qyuk:    0.0000
               qwid:   0.10000E-01
                rcs:    0.0000      0.0000
            lambdas:    1.0000      1.0000
L=0  Nkbl=1  erefs: 0.17977+309
L=1  Nkbl=1  erefs: 0.17977+309
L=2  Nkbl=1  erefs: 0.17977+309
L=3  Nkbl=1  erefs: 0.17977+309
</basis_specs>

atom: Called for O                     (Z =   8)

read_vps: Pseudopotential generation method:
read_vps: ATM4.2.7  Troullier-Martins
Valence charge for ps generation:    6.00000

xc_check: Exchange-correlation functional:
xc_check: GGA Perdew, Burke & Ernzerhof 1996
V l=0 = -2*Zval/r beyond r=  1.1000
V l=1 = -2*Zval/r beyond r=  1.1000
V l=2 = -2*Zval/r beyond r=  2.2154
V l=3 = -2*Zval/r beyond r=  1.1000
All V_l potentials equal beyond r=  2.2154
This should be close to max(r_c) in ps generation
All pots = -2*Zval/r beyond r=  2.2154

VLOCAL1: 99.0% of the norm of Vloc inside      8.845 Ry
VLOCAL1: 99.9% of the norm of Vloc inside     20.157 Ry
atom: Maximum radius for 4*pi*r*r*local-pseudopot. charge    2.67231
atom: Maximum radius for r*vlocal+2*Zval:    2.32897
GHOST: No ghost state for L =  0
GHOST: No ghost state for L =  1
GHOST: No ghost state for L =  2
GHOST: No ghost state for L =  3

KBgen: Kleinman-Bylander projectors:
   l= 0   rc=  2.243238   el= -1.759686   Ekb=**********   kbcos= -0.171774
   l= 1   rc=  2.328968   el= -0.663873   Ekb=-14.506792   kbcos= -0.519897
   l= 2   rc=  2.573941   el=  0.002031   Ekb= -1.137373   kbcos= -0.019581
   l= 3   rc=  2.606321   el=  0.003153   Ekb= -1.013546   kbcos= -0.003122

KBgen: Total number of Kleinman-Bylander projectors:   16
atom: -------------------------------------------------------------------------

atom: SANKEY-TYPE ORBITALS:
atom: Selected multiple-zeta basis: split

[...]

SPLIT: Basis orbitals for state 2s

[...]

SPLIT: Orbitals with angular momentum L= 1

[...]

[...]

cgvc: Finished line minimization   98.  Mean atomic displacement =    0.0002

[...]

                        Begin CG opt. move =    244

outcoor: Atomic coordinates (Ang):
    1.87089408    5.30564777   -0.08576103   1       1  H
    1.00211320    4.70046092   -0.01181765   2       2  N
   -0.60885961    5.49493210    0.01913833   3       3  Si
   -0.34128350    6.98259093   -0.17014740   1       4  H
   -2.39535987    4.46421740    0.91495489   3       5  Si
   -4.36206650    5.39375948   -0.04363205   3       6  Si
   -4.67863281    4.95146439   -1.45380470   1       7  H
   -5.52898321    5.03976478    0.85500083   1       8  H
   -4.16869061    6.89646479   -0.00036493   1       9  H
   -1.86812411    2.30990070    0.19266042   3      10  Si
   -2.72232598    0.97506889    0.00025590   4      11  O
   -0.07580925    2.01505055    0.11172625   2      12  N
    0.08679744    0.97136245    0.00015952   1      13  H
    1.40951887    2.95344600    0.03725350   3      14  Si
    2.89088089    2.38845159   -0.00007160   4      15  O

outcell: Unit cell vectors (Ang):
       16.334625    0.000000    0.000000
        0.000000   14.147142    0.000000
        0.000000    0.000000   10.262756

outcell: Cell vector modules (Ang)   :   16.334625   14.147142   10.262756
outcell: Cell angles (23,13,12) (deg):     90.0000     90.0000     90.0000
outcell: Cell volume (Ang**3)        :   2371.6024
<dSpData1D:S at geom step 244
  <sparsity:sparsity for geom step 244
    nrows_g=147 nrows=8 sparsity=.0527 nnzs=1139, refcount: 7>
  <dData1D:(new from dSpData1D) n=1139, refcount: 1>
refcount: 1>
new_DM -- step:   245
Re-using DM from previous geometries...
Number of DMs in history: 1
 DM extrapolation coefficients:
1   1.00000
New DM after history re-use:
<dSpData2D:SpM extrapolated using coords
  <sparsity:sparsity for geom step 244
    nrows_g=147 nrows=8 sparsity=.0527 nnzs=1139, refcount: 9>
  <dData2D:(temp array for extrapolation) n=1139 m=2, refcount: 1>
refcount: 1>
     spin moment: S , {S} =   -0.00000       0.0       0.0  -0.00000
No. of atoms with KB's overlaping orbs in proc 0. Max # of overlaps:      11     126
New grid distribution:   1
           1       1:   96    1:   20    1:    8
           2       1:   96    1:   20    9:   16
           3       1:   96    1:   20   17:   24
           4       1:   96    1:   20   25:   32
           5       1:   96    1:   20   33:   39
           6       1:   96    1:   20   40:   46
           7       1:   96    1:   20   47:   53
           8       1:   96    1:   20   54:   60
           9       1:   96   21:   40    1:    8
          10       1:   96   21:   40    9:   16
          11       1:   96   21:   40   17:   24
          12       1:   96   21:   40   25:   32
          13       1:   96   21:   40   33:   39
          14       1:   96   21:   40   40:   46
          15       1:   96   21:   40   47:   53
          16       1:   96   21:   40   54:   60
          17       1:   96   41:   60    1:    8
          18       1:   96   41:   60    9:   16
          19       1:   96   41:   60   17:   24
          20       1:   96   41:   60   25:   32
          21       1:   96   41:   60   33:   39
          22       1:   96   41:   60   40:   46
          23       1:   96   41:   60   47:   53
          24       1:   96   41:   60   54:   60
          25       1:   96   61:   80    1:    8
          26       1:   96   61:   80    9:   16
          27       1:   96   61:   80   17:   24
          28       1:   96   61:   80   25:   32
          29       1:   96   61:   80   33:   39
          30       1:   96   61:   80   40:   46
          31       1:   96   61:   80   47:   53
          32       1:   96   61:   80   54:   60

InitMesh: MESH =   192 x   160 x   120 =     3686400
InitMesh: (bp) =    96 x    80 x    60 =      460800
InitMesh: Mesh cutoff (required, used) =   340.000   353.512 Ry
ExtMesh (bp) on 0 =   204 x   124 x   116 =     2934336
New grid distribution:   2
           1      12:   75    1:   16    1:   16
           2       1:   11    1:   15    1:   16
           3      12:   75    1:   16   17:   60
           4      88:   96    1:   15   18:   60
           5      12:   75   17:   23   17:   60
           6      87:   96   32:   80    1:   19
           7      76:   87   16:   23   18:   60
           8      88:   96    1:   15    1:   17
           9      16:   75   24:   32    1:   18
          10       1:   15   24:   31    1:   18
          11      76:   86   24:   32   20:   60
          12      18:   75   24:   32   19:   60
          13      87:   96   32:   80   20:   60
          14      76:   87    1:   15   18:   60
          15       1:   17   24:   30   19:   60
          16      76:   86   24:   33    1:   19
          17       1:   15   32:   80    1:   18
          18       1:   11   16:   23   17:   60
          19      76:   87   15:   23    1:   17
          20      18:   75   33:   80   19:   60
          21       1:   17   31:   80   19:   60
          22       1:   11    1:   15   17:   60
          23      87:   96   24:   31   20:   60
          24      87:   96   24:   31    1:   19
          25      16:   75   33:   80    1:   18
          26      76:   86   34:   80    1:   19
          27      88:   96   16:   23   18:   60
          28       1:   11   16:   23    1:   16
          29      76:   86   33:   80   20:   60
          30      12:   75   17:   23    1:   16
          31      76:   87    1:   14    1:   17
          32      88:   96   16:   23    1:   17
New grid distribution:   3
           1      82:   96   47:   80    1:   26
           2      81:   96    1:   16   28:   60
           3       1:   19    1:   14    1:   24
           4      19:   64    1:   17   25:   60
           5      20:   64    1:   18    1:   24
           6      18:   64   28:   36    1:   24
           7       1:   18    1:   14   25:   60
           8      65:   81   31:   44    1:   26
           9      82:   96   46:   80   27:   60
          10      65:   81   31:   43   27:   60
          11      65:   81   17:   30    1:   27
          12      19:   64   18:   27   25:   60
          13      18:   64   28:   37   25:   60
          14      20:   64   19:   27    1:   24
          15       1:   18   15:   27   25:   60
          16      65:   80   19:   30   28:   60
          17       1:   17   44:   80    1:   24
          18      81:   96   17:   30   28:   60
          19      82:   96   31:   46    1:   26
          20      18:   64   38:   80   25:   60
          21      65:   81   44:   80   27:   60
          22      65:   80    1:   18   28:   60
          23      82:   96   31:   45   27:   60
          24      82:   96    1:   15    1:   27
          25      18:   64   37:   80    1:   24
          26      65:   81   45:   80    1:   26
          27      65:   81    1:   16    1:   27
          28      82:   96   16:   30    1:   27
          29       1:   17   43:   80   25:   60
          30       1:   17   28:   42   25:   60
          31       1:   17   28:   43    1:   24
          32       1:   19   15:   27    1:   24
Setting up quadratic distribution...
ExtMesh (bp) on 0 =   172 x   120 x   124 =     2559360
PhiOnMesh: Number of (b)points on node 0 =                16384
PhiOnMesh: nlist on node 0 =               219309

        iscf     Eharris(eV)        E_KS(eV)     FreeEng(eV)     dDmax    Ef(eV) dHmax(eV)
   scf:    1    -2039.597625    -2039.597555    -2039.597555  0.000018 -4.666310  0.001118
     spin moment: S , {S} =    0.00000       0.0       0.0   0.00000
   scf:    2    -2039.597554    -2039.597555    -2039.597555  0.000049 -4.666741  0.004259
     spin moment: S , {S} =   -0.00000       0.0       0.0  -0.00000
   scf:    3    -2039.597555    -2039.597555    -2039.597555  0.000041 -4.666435  0.000166
     spin moment: S , {S} =   -0.00000       0.0       0.0  -0.00000

SCF Convergence by DM+H criterion
max |DM_out - DM_in|         :     0.0000405024
max |H_out - H_in|      (eV) :     0.0001657391
SCF cycle converged after 3 iterations

Using DM_out to compute the final energy and forces
No. of atoms with KB's overlaping orbs in proc 0. Max # of overlaps:      11     126

siesta: E_KS(eV) =            -2039.5976
     spin moment: S , {S} =   -0.00000       0.0       0.0  -0.00000

siesta: Atomic forces (eV/Ang):
     1    0.001068    0.000454   -0.000036
     2   -0.002365   -0.000966    0.000298
     3   -0.000433    0.001727   -0.000317
     4    0.000478    0.000427   -0.001830
     5    0.000707    0.000307   -0.000117
     6   -0.000038   -0.000749    0.003258
     7    0.000271   -0.000850    0.000671
     8    0.000407    0.002183    0.001612
     9   -0.003209    0.001970    0.001505
    10    0.000848    0.000301   -0.002019
    11   -0.001535   -0.000366    0.002307
    12    0.000845    0.000791    0.003152
    13    0.000739   -0.003577    0.000118
    14    0.000158    0.000684   -0.000973
    15   -0.002928   -0.000533   -0.001027
   Tot   -0.004987    0.001802    0.006603
   Max    0.003577
   Res    0.001496    sqrt( Sum f_i^2 / 3N )
   Max    0.003577    constrained

Stress tensor Voigt[x,y,z,yz,xz,xy] (kbar):       -0.28        0.21       -0.35       -0.02       -0.01        0.01
(Free)E + p*V (eV/cell)    -2039.3909
Target enthalpy (eV/cell)    -2039.5976

mulliken: Atomic and Orbital Populations:

mulliken: Spin UP

[...]

mulliken: Spin DOWN

Species: H
Atom  Qatom  Qorb
   1  0.377   0.241   0.095   0.012   0.016   0.012
   4  0.597   0.527   0.040   0.017   0.007   0.005
   7  0.603   0.534   0.041   0.008   0.013   0.007
   8  0.601   0.534   0.041   0.007   0.009   0.010
   9  0.602   0.535   0.041   0.013   0.008   0.006
  13  0.372   0.238   0.095   0.011   0.015   0.014

[...]

Species: O
Atom  Qatom  Qorb
               3Pdxy   3Pdyz   3Pdz2   3Pdxz   3Pdx2-y2
  11  3.229   0.874   0.034   0.729   0.753   0.797   0.017   0.001   0.010
              0.003   0.004   0.001   0.002   0.004
  15  3.228   0.872   0.035   0.791   0.765   0.709   0.013   0.003   0.025
              0.004   0.001   0.001   0.005   0.004

mulliken: Qtot =       24.000

outcoor: Relaxed atomic coordinates (Ang):
    1.87089408    5.30564777   -0.08576103   1       1  H
    1.00211320    4.70046092   -0.01181765   2       2  N
   -0.60885961    5.49493210    0.01913833   3       3  Si
   -0.34128350    6.98259093   -0.17014740   1       4  H
   -2.39535987    4.46421740    0.91495489   3       5  Si
   -4.36206650    5.39375948   -0.04363205   3       6  Si
   -4.67863281    4.95146439   -1.45380470   1       7  H
   -5.52898321    5.03976478    0.85500083   1       8  H
   -4.16869061    6.89646479   -0.00036493   1       9  H
   -1.86812411    2.30990070    0.19266042   3      10  Si
   -2.72232598    0.97506889    0.00025590   4      11  O
   -0.07580925    2.01505055    0.11172625   2      12  N
    0.08679744    0.97136245    0.00015952   1      13  H
    1.40951887    2.95344600    0.03725350   3      14  Si
    2.89088089    2.38845159   -0.00007160   4      15  O

coxmol: Writing XMOL coordinates into file T.xyz

siesta: Eigenvalues (eV):
  ik is       eps
   1  1  -22.9899  -22.5180  -21.9112  -21.2785  -15.1015  -13.9669  -13.6738  -13.1408  -11.9266  -11.4427
         -10.6084   -9.5595   -9.1764   -9.1285   -9.0390   -8.6365   -8.2262   -8.0688   -7.7443   -7.4132
   -6.9799   -6.7956   -6.4705   -6.1923   -3.9439   -2.6474   -2.4500   -2.2734   -1.9227   -1.4253
   -1.2971   -0.5558   -0.0903    0.1836    0.3414    0.6145    0.8873    1.2713    1.4558    1.5727
    2.2240    2.3359    2.4736    2.9523    3.1416    3.5861    4.0333    4.1618    4.2525    4.7457
    5.1901    5.2765    5.3122    5.9441    6.0418    6.2119    6.7863    7.0924    7.4693    7.6935
    7.8931    8.1634    8.4199    9.0820    9.5587   10.0321   10.0929   10.4552   11.0245   11.3903
   11.4494   11.5261   12.0891   12.2389   12.7103   13.0403   13.6840   13.8478   14.1073   14.6068
   15.7374   15.9610   16.5079   16.6890   17.2983   17.6486   18.3104   19.4091   20.1931   20.6632
   20.9421   21.7518   21.8256   22.4045   23.2880   23.7007   24.3485   25.7513   26.1270   26.7399
   27.8932   28.5753   28.6449   30.0603   30.7703   33.1802   33.4449   33.9419   34.3774   34.5668
   35.4136   36.2865   36.8389   38.3004   38.8478   39.6885   40.7858   41.5706   42.4218   44.4778
   45.4099   46.8011   47.6159   48.2129   50.0872   50.2340   50.3407   51.5738   52.1087   52.8655
   53.7739   55.2944   55.8783   56.4643   57.2628   58.3276   62.3828   65.3705   66.3252   67.3117
   70.1824   88.5541   91.1313   96.6377   99.4438  118.6610  134.2584
   1  2  -22.9899  -22.5180  -21.9112  -21.2785  -15.1015  -13.9669  -13.6738  -13.1408  -11.9266  -11.4427
         -10.6084   -9.5595   -9.1764   -9.1285   -9.0390   -8.6365   -8.2262   -8.0688   -7.7443   -7.4132
   -6.9799   -6.7956   -6.4705   -6.1923   -3.9439   -2.6474   -2.4500   -2.2734   -1.9227   -1.4253
   -1.2971   -0.5558   -0.0903    0.1836    0.3414    0.6145    0.8873    1.2713    1.4558    1.5727
    2.2240    2.3359    2.4736    2.9523    3.1416    3.5861    4.0333    4.1618    4.2525    4.7457
    5.1901    5.2765    5.3122    5.9441    6.0418    6.2119    6.7863    7.0924    7.4693    7.6935
    7.8931    8.1634    8.4199    9.0820    9.5587   10.0321   10.0929   10.4552   11.0245   11.3903
   11.4494   11.5261   12.0891   12.2389   12.7103   13.0403   13.6840   13.8478   14.1073   14.6068
   15.7374   15.9610   16.5079   16.6890   17.2983   17.6486   18.3104   19.4091   20.1931   20.6632
   20.9421   21.7518   21.8256   22.4045   23.2880   23.7007   24.3485   25.7513   26.1270   26.7399
   27.8932   28.5753   28.6449   30.0603   30.7703   33.1802   33.4449   33.9419   34.3774   34.5668
   35.4136   36.2865   36.8389   38.3004   38.8478   39.6885   40.7858   41.5706   42.4218   44.4778
   45.4099   46.8011   47.6159   48.2129   50.0872   50.2340   50.3407   51.5738   52.1087   52.8655
   53.7739   55.2944   55.8783   56.4643   57.2628   58.3276   62.3828   65.3705   66.3252   67.3117
   70.1824   88.5541   91.1313   96.6377   99.4438  118.6610  134.2584
siesta: Fermi energy =      -4.666435 eV

siesta: Program's energy decomposition (eV):
siesta: Ebs     =      -563.979075
siesta: Eions   =      1908.291957
siesta: Ena     =       161.356948
siesta: Ekin    =      1436.794608
siesta: Enl     =     -1202.018895
siesta: Eso     =         0.000000
siesta: Edftu   =         0.000000
siesta: DEna    =         8.224494
siesta: DUscf   =         6.762495
siesta: DUext   =         0.000000
siesta: Exc     =      -542.425248
siesta: eta*DQ  =         0.000000
siesta: Emadel  =         0.000000
siesta: Emeta   =         0.000000
siesta: Emolmec =         0.000000
siesta: Ekinion =         0.000000
siesta: Eharris =     -2039.597555
siesta: Etot    =     -2039.597555
siesta: FreeEng =     -2039.597555

siesta: Final energy (eV):
siesta:  Band Struct. =    -563.979075
siesta:       Kinetic =    1436.794608
siesta:       Hartree =    3044.427605
siesta:       Edftu   =       0.000000
siesta:       Eso     =       0.000000
siesta:    Ext. field =       0.000000
siesta:   Exch.-corr. =    -542.425248
siesta:  Ion-electron =   -7385.918793
siesta:       Ion-ion =    1407.524273
siesta:       Ekinion =       0.000000
siesta:         Total =   -2039.597555
siesta:         Fermi =      -4.666435

siesta: Stress tensor (static) (eV/Ang**3):
siesta:    -0.000175    0.000005   -0.000007
siesta:     0.000005    0.000132   -0.000010
siesta:    -0.000007   -0.000010   -0.000218

siesta: Cell volume =       2371.602354 Ang**3

siesta: Pressure (static):
siesta:                Solid            Molecule  Units
siesta:           0.00000095          0.00000092  Ry/Bohr**3
siesta:           0.00008712          0.00008486  eV/Ang**3
siesta:           0.13958786          0.13596156  kBar
(Free)E+ p_basis*V_orbitals  =       -2029.151340
(Free)Eharris+ p_basis*V_orbitals  =       -2029.151340
     spin moment: S , {S} =   -0.00000       0.0       0.0  -0.00000

siesta: Electric dipole (a.u.)  =   -0.298842    2.580525    0.013616
siesta: Electric dipole (Debye) =   -0.759582    6.559044    0.034610

cite: Please see "T.bib" for an exhaustive BiBTeX file.
cite: Please clearly indicate Siesta version in published work: v4.1.5-1-g384057250
cite: This calculation has made use of the following articles
cite: which are encouraged to be cited in a published work.
        Primary SIESTA paper
          DOI: www.doi.org/10.1088/0953-8984/14/11/302

WARNING: alloc-realloc-dealloc name mismatch
         Name: atomlist isa
         Node:     0
         Subsequent mismatches will not be reported
>> End of run:  19-FEB-2022  21:06:49
Job completed