 NOTE: Siesta V5 introduces some new defaults for basis-set generation
 NOTE: which might lead to slightly different numerical results.
 NOTE: Please see the manual for full details and compatibility measures.

reinit: Reading from standard input
reinit: Dumping input in INPUT_TMP.58272
************************** Dump of input data file ****************************
# mpirun -np 8 siesta-5 < GC.fdf > GC.out &
SystemLabel      GC
NumberOfAtoms    29
NumberOfSpecies  4
%block ChemicalSpeciesLabel
    1    1  H ../../../Pseudos/VW/H/H.psf
    2    7  N ../../../Pseudos/VW/N/N.psf
    3   14  Si ../../../Pseudos/VW/Si/Si.psf
    4    8  O ../../../Pseudos/VW/O/O.psf
%endblock ChemicalSpeciesLabel
# This overrides Defaults.fdf configuration
MD.Steps                    1000
%block Geometry.Constraints
    atom all 0.0 0.0 1.0 # constrain along z Cartesian vector
    atom [7]
%endblock
AtomicCoordinatesFormat NotScaledCartesianAng
%block AtomicCoordinatesAndAtomicSpecies
    0.99466806    3.58032984    0.00000000   1       1  H
    0.28363298    2.81202576    0.00000000   2       2  N
   -1.43680539    3.28028103    0.00000000   3       3  Si
   -1.58784427    4.75825624    0.00000000   1       4  H
   -2.91825243    1.68367821    0.00000000   3       5  Si
   -4.39762002    1.83346656    0.00000000   1       6  H
   -1.72458961   -0.22740243    0.00000000   3       7  Si
   -2.48452746   -1.75028589    0.00000000   2       8  N
   -1.97849722   -2.68073656    0.00000000   1       9  H
   -3.49163488   -1.92228569    0.00000000   1      10  H
   -0.02896456   -0.15929827    0.00000000   2      11  N
    1.02149313    1.17310894    0.00000000   3      12  Si
    2.60909544    1.17703994    0.00000000   4      13  O
    5.65591860   -7.46824833    0.00000000   1      14  H
    4.63025118   -7.26907570    0.00000000   2      15  N
    3.34849335   -8.53314195    0.00000000   3      16  Si
    3.81568662   -9.93102457    0.00000000   1      17  H
    1.72746749   -8.05196935    0.00000000   2      18  N
    1.73332541   -6.24387630    0.00000000   3      19  Si
    0.57167742   -4.35431028    0.00000000   3      20  Si
   -0.99059700   -4.03240941    0.00000000   4      21  O
    1.74760562   -2.93310526    0.00000000   2      22  N
    1.21540598   -2.00908239    0.00000000   1      23  H
    3.51464287   -2.81401757    0.00000000   3      24  Si
    4.11948213   -1.21085069    0.00000000   2      25  N
    3.50795467   -0.33341948    0.00000000   1      26  H
    5.15342033   -1.06258823    0.00000000   1      27  H
    4.62341703   -4.10090774    0.00000000   2      28  N
    3.83325823   -5.62601379    0.00000000   3      29  Si
%endblock AtomicCoordinatesAndAtomicSpecies
# Unit Cell
LatticeConstant 1.0 Ang
%block LatticeVectors
    18.663680   0.000000     0.000000
    0.000000    23.664587    0.000000
    0.000000    0.000000     9.854683
%endblock LatticeVectors
%include ../../../Defaults.fdf
************************** End of input data file *****************************

reinit: -----------------------------------------------------------------------
reinit: System Name:
reinit: -----------------------------------------------------------------------
reinit: System Label: GC
reinit: -----------------------------------------------------------------------

NOTE on units for spin output:
{S} is the spin magnetic moment, in units of the Bohr magneton,
assuming a g-factor for the electron spin of exactly 2.
The spin magnetic moment is then numerically equal to the charge inbalance,
in units of electrons, between the spin-up and -down channels.

initatom: Reading input for the pseudopotentials and atomic orbitals ----------
Species number:   1 Atomic number:    1 Label: H
Species number:   2 Atomic number:    7 Label: N
Species number:   3 Atomic number:   14 Label: Si
Species number:   4 Atomic number:    8 Label: O

Ground state valence configuration (from tables):   1s01  2p00  3d00  4f00
Ground state valence configuration (from tables):   2s02  2p03  3d00  4f00
Ground state valence configuration (from tables):   3s02  3p02  3d00  4f00
Ground state valence configuration (from tables):   2s02  2p04  3d00  4f00

---- Processing specs for species: H
Reading pseudopotential information in formatted form from:
  ../../../Pseudos/VW/H/H.psf

[...]

---- Processing specs for species: O
Reading pseudopotential information in formatted form from:
  ../../../Pseudos/VW/O/O.psf

---- Pseudopotential check for H

Pseudopotential generated from a fully relativistic atomic calculation
There are spin-orbit semi-local pseudopotentials available

Pseudized shells:
1s( 1.00) rc: 0.04
Valence configuration for ps generation: (assumed as above)

[...]

Pseudized shells:
2s( 2.00) rc: 1.00
2p( 3.00) rc: 1.04
3d( 0.00) rc: 2.87
Valence configuration for ps generation: (assumed as above)

[...]

Pseudized shells:
3s( 2.00) rc: 1.67
3p( 2.00) rc: 1.99
3d( 0.00) rc: 2.04
Valence configuration for ps generation: (assumed as above)

---- Pseudopotential check for O

Pseudopotential generated from a fully relativistic atomic calculation
There are spin-orbit semi-local pseudopotentials available

Pseudized shells:
2s( 2.00) rc: 0.89
2p( 4.00) rc: 1.03
3d( 0.00) rc: 1.64
Valence configuration for ps generation: (assumed as above)
For H, standard SIESTA heuristics set lmxkb to 2
 (one more than the basis l, including polarization orbitals).
Use PS.lmax or PS.KBprojectors blocks to override.
For N, standard SIESTA heuristics set lmxkb to 3
 (one more than the basis l, including polarization orbitals).
Use PS.lmax or PS.KBprojectors blocks to override.
For Si, standard SIESTA heuristics set lmxkb to 3
 (one more than the basis l, including polarization orbitals).
Use PS.lmax or PS.KBprojectors blocks to override.
For O, standard SIESTA heuristics set lmxkb to 3
 (one more than the basis l, including polarization orbitals).
Use PS.lmax or PS.KBprojectors blocks to override.
../../../Pseudos/VW/H/H.psf pseudopotential only contains V_ls up to l=0 -- lmxkb reset.
../../../Pseudos/VW/N/N.psf pseudopotential only contains V_ls up to l=2 -- lmxkb reset.
../../../Pseudos/VW/Si/Si.psf pseudopotential only contains V_ls up to l=2 -- lmxkb reset.
../../../Pseudos/VW/O/O.psf pseudopotential only contains V_ls up to l=2 -- lmxkb reset.

<basis_specs>
H                    Z=   1    Mass=  1.0080        Charge= 0.17977+309
Lmxo=1 Lmxkb= 0    BasisType=split      Semic=F
L=0  Nsemic=0  Cnfigmx=1
          i=1  nzeta=2  polorb=1  (1s)  (to be polarized perturbatively)
            splnorm:   0.62000
               vcte:    40.000
               rinn:  -0.90000
               qcoe:    0.0000
               qyuk:    0.0000
               qwid:   0.10000E-01
                rcs:    0.0000      0.0000
            lambdas:    1.0000      1.0000
L=1  Nsemic=0  Cnfigmx=2
          i=1  nzeta=0  polorb=0  (2p)  (perturbative polarization orbital) (from 1s)
</basis_specs>

Filter: Requested cutoff:  290.000000 Ry
Using PAO.SplitTailNorm
atom: Called for H                     (Z =   1)
NOTE: H pseudopotential has channels up to l= 0
NOTE: PAOs with higher l will be generated with V_local
Maximum radius (at nrval) set to   50.00000 8518

read_vps: Pseudopotential generation method:
read_vps: ATM4.2.7  Troullier-Martins
Valence charge in pseudo generation:    1.00000

xc_check: Exchange-correlation functional:
xc_check: GGA Perdew, Burke & Ernzerhof 1996
xc_check: WARNING: Pseudopotential generated with VDW DRSLL functional
V l=0 = -2*Zval/r beyond r=  0.0399
All V_l potentials equal beyond r=  0.0399
This should be close to max(r_c) in ps generation
All pots = -2*Zval/r beyond r=  0.0399
Using small-core scheme (local charge) for Vlocal

VLOCAL_FROM_CHLOCAL: 99.0% of the norm of Vloc inside  27227.515 Ry
VLOCAL_FROM_CHLOCAL: 99.9% of the norm of Vloc inside  62052.012 Ry
atom: Maximum radius for chlocal:    0.04942
atom: Maximum radius for r*vlocal+2*Zval:    0.04228

KBgen: Kleinman-Bylander projectors:
GHOST: No ghost state for L =  0
KBproj: WARNING: Rc(0)=      0.3611
KBproj: WARNING: Cut off radius for the KB projector too small
   l= 0   rc=  0.361142   el= -0.469255   Ekb=-43.544307   kbcos= -0.003521

KBgen: Total number of Kleinman-Bylander projectors:   1
atom: -------------------------------------------------------------------------

atom: SANKEY-TYPE ORBITALS:
atom: Selected multiple-zeta basis: split

SPLIT: Orbitals with angular momentum L= 0

SPLIT: Basis orbitals for state 1s

SPLIT: PAO cut-off radius determined from an
SPLIT: energy shift=  0.005000 Ry
Split based on tail norm

   izeta = 1
                 lambda =    1.000000
                     rc =    5.795640
                 energy =   -0.463546
                kinetic =    0.935863
    potential(screened) =   -1.399409
       potential(ionic) =   -1.930087
PAO Filter: Cutoff used:  142.10 Ry
PAO Filter: diagnostic kin energy tol:    0.003000 Ry
PAO Filter: Nominal cutoff (before filtering):  107.12 Ry
Filter:    Number of eigenfunctions  of the
           filtering kernel (total, used)= 55 20

   izeta = 2
                 rmatch =    1.668381
              splitnorm =    0.620000
                 energy =    1.727445
                kinetic =    5.799880
    potential(screened) =   -4.072435
       potential(ionic) =   -4.620210
PAO Filter: Cutoff used:  142.10 Ry
PAO Filter: diagnostic kin energy tol:    0.003000 Ry
PAO Filter: Nominal cutoff (before filtering):  833.70 Ry
Filter:    Number of eigenfunctions  of the
           filtering kernel (total, used)= 23  5
*Note: V_local used for l= 1

** Using vlocal for PAOs with L= 1

POLgen: Perturbative polarization orbital with L=  1

POLgen: Polarization orbital for state 1s
*Note: V_local used for lpol= 1

** Using vlocal for PAOs with L= 1
Split based on tail norm

   izeta = 1
                     rc =    5.795640
                 energy =    0.605240
                kinetic =    1.215969
    potential(screened) =   -0.610729
       potential(ionic) =   -1.094071
PAO Filter: diagnostic kin energy tol:    0.003000 Ry
PAO Filter: Nominal cutoff (before filtering):   49.10 Ry
Filter:    Number of eigenfunctions  of the
           filtering kernel (total, used)= 55 20
atom: Total number of Sankey-type orbitals:  5

atm_pop: Valence configuration (for local Pseudopot. screening):
 1s( 1.00)
 2p( 0.00)
Vna: chval, zval:    1.00000   1.00000

Vna:  Cut-off radius for the neutral-atom potential:   5.795640
VNA Filter: diagnostic kinetic energy tol:    0.003000 Ry
VNA Filter: Nominal cutoff (before filtering):31625.64 Ry
VNA Filter: Cutoff used:   290.00 Ry
Filter:    Number of eigenfunctions  of the
           filtering kernel (total, used)= 74 30

atom: _________________________________________________________________________

<basis_specs>
N                    Z=   7    Mass=  14.007        Charge= 0.17977+309
Lmxo=2 Lmxkb= 2    BasisType=split      Semic=F
L=0  Nsemic=0  Cnfigmx=2
          i=1  nzeta=2  polorb=0  (2s)
            splnorm:   0.28000
               vcte:    40.000
               rinn:  -0.90000
               qcoe:    0.0000
               qyuk:    0.0000
               qwid:   0.10000E-01
[...]
     spin moment: {S} , |S| = {   -0.00000   -0.00000   -0.00000 }     0.00000
   scf:    7   -10067.580079   -10067.580079   -10067.580079  0.000001 -3.884833  0.000009
     spin moment: {S} , |S| = {   -0.00000   -0.00000   -0.00000 }     0.00000
   scf:    8   -10067.580079   -10067.580079   -10067.580079  0.000000 -3.884832  0.000004
     spin moment: {S} , |S| = {   -0.00000   -0.00000   -0.00000 }     0.00000
   scf:    9   -10067.580079   -10067.580079   -10067.580079  0.000000 -3.884831  0.000001
     spin moment: {S} , |S| = {   -0.00000   -0.00000   -0.00000 }     0.00000

[...]

        iscf     Eharris(eV)        E_KS(eV)     FreeEng(eV)     dDmax    Ef(eV) dHmax(eV)
   scf:    1   -10067.580205   -10067.582239   -10067.582239  0.000113 -3.867643  0.002891
     spin moment: {S} , |S| = {   -0.00000   -0.00000   -0.00000 }     0.00000
   scf:    2   -10067.582227   -10067.582236   -10067.582236  0.000128 -3.865920  0.008116
     spin moment: {S} , |S| = {   -0.00000   -0.00000   -0.00000 }     0.00000
   scf:    3   -10067.582241   -10067.582240   -10067.582240  0.000102 -3.867114  0.000691
     spin moment: {S} , |S| = {   -0.00000   -0.00000   -0.00000 }     0.00000
   scf:    4   -10067.582240   -10067.582240   -10067.582240  0.000009 -3.867039  0.000225
     spin moment: {S} , |S| = {   -0.00000   -0.00000   -0.00000 }     0.00000
   scf:    5   -10067.582240   -10067.582240   -10067.582240  0.000004 -3.867013  0.000081
     spin moment: {S} , |S| = {   -0.00000   -0.00000   -0.00000 }     0.00000
   scf:    6   -10067.582240   -10067.582240   -10067.582240  0.000001 -3.867002  0.000025
     spin moment: {S} , |S| = {   -0.00000   -0.00000   -0.00000 }     0.00000
   scf:    7   -10067.582240   -10067.582240   -10067.582240  0.000001 -3.866998  0.000013
     spin moment: {S} , |S| = {   -0.00000   -0.00000   -0.00000 }     0.00000
   scf:    8   -10067.582240   -10067.582240   -10067.582240  0.000000 -3.866998  0.000004
     spin moment: {S} , |S| = {   -0.00000   -0.00000   -0.00000 }     0.00000
   scf:    9   -10067.582240   -10067.582240   -10067.582240  0.000000 -3.866998  0.000002
     spin moment: {S} , |S| = {   -0.00000   -0.00000   -0.00000 }     0.00000
   scf:   10   -10067.582240   -10067.582240   -10067.582240  0.000000 -3.866998  0.000000
     spin moment: {S} , |S| = {   -0.00000   -0.00000   -0.00000 }     0.00000

[...]

        iscf     Eharris(eV)        E_KS(eV)     FreeEng(eV)     dDmax    Ef(eV) dHmax(eV)
   scf:    1   -10067.582655   -10067.582412   -10067.582412  0.000025 -3.864561  0.000754
     spin moment: {S} , |S| = {   -0.00000   -0.00000   -0.00000 }     0.00000
   scf:    2   -10067.582411   -10067.582412   -10067.582412  0.000031 -3.864806  0.002538
     spin moment: {S} , |S| = {   -0.00000   -0.00000   -0.00000 }     0.00000
   scf:    3   -10067.582412   -10067.582412   -10067.582412  0.000026 -3.864625  0.000142
     spin moment: {S} , |S| = {   -0.00000   -0.00000   -0.00000 }     0.00000
   scf:    4   -10067.582412   -10067.582412   -10067.582412  0.000001 -3.864629  0.000055
     spin moment: {S} , |S| = {   -0.00000   -0.00000   -0.00000 }     0.00000
   scf:    5   -10067.582412   -10067.582412   -10067.582412  0.000000 -3.864631  0.000022
     spin moment: {S} , |S| = {   -0.00000   -0.00000   -0.00000 }     0.00000
   scf:    6   -10067.582412   -10067.582412   -10067.582412  0.000000 -3.864633  0.000005
     spin moment: {S} , |S| = {   -0.00000   -0.00000   -0.00000 }     0.00000
   scf:    7   -10067.582412   -10067.582412   -10067.582412  0.000000 -3.864634  0.000001
     spin moment: {S} , |S| = {   -0.00000   -0.00000   -0.00000 }     0.00000
   scf:    8   -10067.582412   -10067.582412   -10067.582412  0.000000 -3.864634  0.000001
     spin moment: {S} , |S| = {   -0.00000   -0.00000   -0.00000 }     0.00000

[...]

                        Begin Broyden opt. move =     63

outcoor: Atomic coordinates (Ang):
    0.99877759    3.53891735    0.00000000   1       1  H
    0.30729485    2.75526683    0.00000000   2       2  N
   -1.38730526    3.20912072    0.00000000   3       3  Si
   -1.53016450    4.69651369    0.00000000   1       4  H
   -2.90533201    1.66779077    0.00000000   3       5  Si
   -4.37805470    1.88227999    0.00000000   1       6  H
   -1.72458961   -0.22740243    0.00000000   3       7  Si
   -2.47688171   -1.73523667    0.00000000   2       8  N
   -1.92360071   -2.66630934    0.00000000   1       9  H
   -3.49983334   -1.83544839    0.00000000   1      10  H
   -0.05044949   -0.16372607    0.00000000   2      11  N
    1.01578164    1.12701795    0.00000000   3      12  Si
    2.58229010    1.06952713    0.00000000   4      13  O
    5.59161237   -7.40281888    0.00000000   1      14  H
    4.56990064   -7.18984525    0.00000000   2      15  N
    3.31186628   -8.42901147    0.00000000   3      16  Si
    3.81396704   -9.82659635    0.00000000   1      17  H
    1.71079254   -7.96893724    0.00000000   2      18  N
    1.69501587   -6.20291024    0.00000000   3      19  Si
    0.56228942   -4.30208769    0.00000000   3      20  Si
   -0.96863927   -3.92443869    0.00000000   4      21  O
    1.75209550   -2.94038491    0.00000000   2      22  N
    1.23046554   -2.01478484    0.00000000   1      23  H
    3.49255656   -2.81616361    0.00000000   3      24  Si
    4.06992101   -1.22814507    0.00000000   2      25  N
    3.45771433   -0.34646364    0.00000000   1      26  H
    5.09325455   -1.04620274    0.00000000   1      27  H
    4.59329086   -4.08258628    0.00000000   2      28  N
    3.79011205   -5.57209825    0.00000000   3      29  Si

outcell: Unit cell vectors (Ang):
       18.663680    0.000000    0.000000
        0.000000   23.664587    0.000000
        0.000000    0.000000    9.854683

outcell: Cell vector modules (Ang)   :   18.663680   23.664587    9.854683
outcell: Cell angles (23,13,12) (deg):     90.0000     90.0000     90.0000
outcell: Cell volume (Ang**3)        :   4352.5009
<dSpData1D:S at geom step 63
  <sparsity:sparsity for geom step 63
    nrows_g=297 nrows=18 sparsity=.0427 nnzs=3765, refcount: 8>
  <dData1D:(new from dSpData1D) n=3765, refcount: 1>
refcount: 1>
new_DM -- step:    64
Re-using DM from previous geometries...
Number of DMs in history: 1
 DM extrapolation coefficients:
1   1.00000
New DM after history re-use:
<dSpData2D:SpM extrapolated using coords
  <sparsity:sparsity for geom step 63
    nrows_g=297 nrows=18 sparsity=.0427 nnzs=3765, refcount: 10>
  <dData2D:(temp array for extrapolation) n=3765 m=8, refcount: 1>
refcount: 1>
     spin moment: {S} , |S| = {   -0.00000   -0.00000   -0.00000 }     0.00000

InitMesh: MESH = 200 x 250 x 108 = 5400000
InitMesh: Mesh cutoff (required, used) =   300.000   308.450 Ry
New grid distribution [1]: sub = 2
New grid distribution [2]: sub = 2
New grid distribution [3]: sub = 2
Setting up quadratic distribution...

        iscf     Eharris(eV)        E_KS(eV)     FreeEng(eV)     dDmax    Ef(eV) dHmax(eV)
   scf:    1   -10067.582104   -10067.582547   -10067.582547  0.000125 -3.863289  0.002561
     spin moment: {S} , |S| = {   -0.00000   -0.00000   -0.00000 }     0.00000
   scf:    2   -10067.582537   -10067.582544   -10067.582544  0.000095 -3.863276  0.008039
     spin moment: {S} , |S| = {   -0.00000   -0.00000   -0.00000 }     0.00000
   scf:    3   -10067.582548   -10067.582547   -10067.582547  0.000071 -3.863250  0.000415
     spin moment: {S} , |S| = {   -0.00000   -0.00000   -0.00000 }     0.00000
   scf:    4   -10067.582547   -10067.582547   -10067.582547  0.000005 -3.863227  0.000124
     spin moment: {S} , |S| = {   -0.00000   -0.00000   -0.00000 }     0.00000
   scf:    5   -10067.582547   -10067.582547   -10067.582547  0.000002 -3.863218  0.000047
     spin moment: {S} , |S| = {   -0.00000   -0.00000   -0.00000 }     0.00000
   scf:    6   -10067.582547   -10067.582547   -10067.582547  0.000001 -3.863213  0.000025
     spin moment: {S} , |S| = {   -0.00000   -0.00000   -0.00000 }     0.00000
   scf:    7   -10067.582547   -10067.582547   -10067.582547  0.000000 -3.863212  0.000009
     spin moment: {S} , |S| = {   -0.00000   -0.00000   -0.00000 }     0.00000
   scf:    8   -10067.582547   -10067.582547   -10067.582547  0.000000 -3.863212  0.000002
     spin moment: {S} , |S| = {   -0.00000   -0.00000   -0.00000 }     0.00000
   scf:    9   -10067.582547   -10067.582547   -10067.582547  0.000000 -3.863212  0.000000
     spin moment: {S} , |S| = {   -0.00000   -0.00000   -0.00000 }     0.00000

SCF Convergence by DM+H criterion
max |DM_out - DM_in|         :     0.0000000517
max |H_out - H_in|      (eV) :     0.0000004912
SCF cycle converged after 9 iterations

Using DM_out to compute the final energy and forces

siesta: E_KS(eV) =           -10067.5825
     spin moment: {S} , |S| = {   -0.00000   -0.00000   -0.00000 }     0.00000

siesta: Atomic forces (eV/Ang):
     1    0.006012    0.001297    0.000000
     2    0.003409    0.005151   -0.000000
     3    0.000913   -0.000385    0.000000
     4   -0.007846    0.003424   -0.000000
     5    0.001024    0.000349   -0.000000
     6    0.000749   -0.001193    0.000000
     7    0.062248   -0.090001   -0.000000
     8   -0.000476    0.000179    0.000000
     9    0.005352   -0.004537   -0.000000
    10   -0.007893    0.003337   -0.000000
    11    0.000270    0.004253   -0.000000
    12    0.002169    0.003753    0.000000
    13    0.002154    0.005452    0.000000
    14   -0.006767   -0.002031    0.000000
    15   -0.003578    0.003804   -0.000000
    16   -0.005503    0.004307    0.000000
    17   -0.007296    0.006142   -0.000000
    18   -0.006726    0.003567   -0.000000
    19   -0.003749    0.003224    0.000000
    20   -0.002332    0.004412   -0.000000
    21   -0.002262   -0.001213    0.000000
    22   -0.003211    0.006155    0.000000
    23   -0.006608    0.002240   -0.000000
    24   -0.002005    0.004096    0.000000
    25   -0.001459    0.003832   -0.000000
    26   -0.000535    0.007923   -0.000000
    27   -0.003201    0.006075    0.000000
    28   -0.003789    0.002000    0.000000
    29   -0.003794    0.002260    0.000000
   Tot    0.005268   -0.012126    0.000000
   Max    0.090001
   Res    0.012194    sqrt( Sum f_i^2 / 3N )
   Max    0.007923    constrained

Stress tensor Voigt[x,y,z,yz,xz,xy] (kbar):        0.12        0.13       -0.01       -0.00       -0.00       -0.14
(Free)E + p*V (eV/cell)   -10067.8048
Target enthalpy (eV/cell)   -10067.5825

outcoor: Relaxed atomic coordinates (Ang):
    0.99877759    3.53891735    0.00000000   1       1  H
    0.30729485    2.75526683    0.00000000   2       2  N
   -1.38730526    3.20912072    0.00000000   3       3  Si
   -1.53016450    4.69651369    0.00000000   1       4  H
   -2.90533201    1.66779077    0.00000000   3       5  Si
   -4.37805470    1.88227999    0.00000000   1       6  H
   -1.72458961   -0.22740243    0.00000000   3       7  Si
   -2.47688171   -1.73523667    0.00000000   2       8  N
   -1.92360071   -2.66630934    0.00000000   1       9  H
   -3.49983334   -1.83544839    0.00000000   1      10  H
   -0.05044949   -0.16372607    0.00000000   2      11  N
    1.01578164    1.12701795    0.00000000   3      12  Si
    2.58229010    1.06952713    0.00000000   4      13  O
    5.59161237   -7.40281888    0.00000000   1      14  H
    4.56990064   -7.18984525    0.00000000   2      15  N
    3.31186628   -8.42901147    0.00000000   3      16  Si
    3.81396704   -9.82659635    0.00000000   1      17  H
    1.71079254   -7.96893724    0.00000000   2      18  N
    1.69501587   -6.20291024    0.00000000   3      19  Si
    0.56228942   -4.30208769    0.00000000   3      20  Si
   -0.96863927   -3.92443869    0.00000000   4      21  O
    1.75209550   -2.94038491    0.00000000   2      22  N
    1.23046554   -2.01478484    0.00000000   1      23  H
    3.49255656   -2.81616361    0.00000000   3      24  Si
    4.06992101   -1.22814507    0.00000000   2      25  N
    3.45771433   -0.34646364    0.00000000   1      26  H
    5.09325455   -1.04620274    0.00000000   1      27  H
    4.59329086   -4.08258628    0.00000000   2      28  N
    3.79011205   -5.57209825    0.00000000   3      29  Si

siesta: Program's energy decomposition (eV):
siesta: Ebs     =     -1135.580501
siesta: Eions   =     10458.738193
siesta: Ena     =      1831.059745
siesta: Ekin    =      2783.253159
siesta: Enl(+so)=     -1826.887808
siesta: Eso(nil)=         0.000000
siesta: Edftu   =         0.000000
siesta: DEna    =         7.935214
siesta: DUscf   =        12.093104
siesta: DUext   =         0.000000
siesta: Ex      =     -2266.317689
siesta: Ec      =      -149.980079
siesta: Exc     =     -2416.297768
siesta: EbV     =         0.000000
siesta: eta*DQ  =         0.000000
siesta: Emadel  =         0.000000
siesta: Emeta   =         0.000000
siesta: Emolmec =         0.000000
siesta: Ekinion =         0.000000
siesta: Eharris =    -10067.582547
siesta: Etot    =    -10067.582547
siesta: FreeEng =    -10067.582547

siesta: Final energy (eV):
siesta:  Band Struct. =   -1135.580501
siesta:       Kinetic =    2783.253159
siesta:       Hartree =    9198.221481
siesta:         Edftu =       0.000000
siesta:      Eso(nil) =       0.000000
siesta:    Ext. field =       0.000000
siesta:         Exch. =   -2266.317689
siesta:         Corr. =    -149.980079
siesta:     Bulk bias =       0.000000
siesta:   Exch.-corr. =   -2416.297768
siesta:  Ion-electron =  -20829.616860
siesta:       Ion-ion =    1196.857441
siesta:       Ekinion =       0.000000
siesta: D3 dispersion =       0.000000
siesta:         Total =  -10067.582547
siesta:         Fermi =      -3.863212

siesta: Atomic forces (eV/Ang):
siesta:      1    0.006012    0.001297    0.000000
siesta:      2    0.003409    0.005151   -0.000000
siesta:      3    0.000913   -0.000385    0.000000
siesta:      4   -0.007846    0.003424   -0.000000
siesta:      5    0.001024    0.000349   -0.000000
siesta:      6    0.000749   -0.001193    0.000000
siesta:      7    0.062248   -0.090001   -0.000000
siesta:      8   -0.000476    0.000179    0.000000
siesta:      9    0.005352   -0.004537   -0.000000
siesta:     10   -0.007893    0.003337   -0.000000
siesta:     11    0.000270    0.004253   -0.000000
siesta:     12    0.002169    0.003753    0.000000
siesta:     13    0.002154    0.005452    0.000000
siesta:     14   -0.006767   -0.002031    0.000000
siesta:     15   -0.003578    0.003804   -0.000000
siesta:     16   -0.005503    0.004307    0.000000
siesta:     17   -0.007296    0.006142   -0.000000
siesta:     18   -0.006726    0.003567   -0.000000
siesta:     19   -0.003749    0.003224    0.000000
siesta:     20   -0.002332    0.004412   -0.000000
siesta:     21   -0.002262   -0.001213    0.000000
siesta:     22   -0.003211    0.006155    0.000000
siesta:     23   -0.006608    0.002240   -0.000000
siesta:     24   -0.002005    0.004096    0.000000
siesta:     25   -0.001459    0.003832   -0.000000
siesta:     26   -0.000535    0.007923   -0.000000
siesta:     27   -0.003201    0.006075    0.000000
siesta:     28   -0.003789    0.002000    0.000000
siesta:     29   -0.003794    0.002260    0.000000
siesta: ----------------------------------------
siesta:    Tot    0.005268   -0.012126    0.000000

siesta: Stress tensor (static) (eV/Ang**3):
siesta:     0.000077   -0.000090    0.000000
siesta:    -0.000090    0.000082   -0.000000
siesta:    -0.000000   -0.000000   -0.000005

siesta: Cell volume =       4352.500882 Ang**3

siesta: Pressure (static):
siesta:                Solid            Molecule  Units
siesta:          -0.00000056         -0.00000017  Ry/Bohr**3
siesta:          -0.00005106         -0.00001520  eV/Ang**3
siesta:          -0.08180046         -0.02435520  kBar
(Free)E+ p_basis*V_orbitals  =      -10053.382233
(Free)Eharris+ p_basis*V_orbitals  =      -10053.382233
     spin moment: {S} , |S| = {   -0.00000   -0.00000   -0.00000 }     0.00000

siesta: Electric dipole (a.u.)  =   -0.019223    1.550600   -0.000000
siesta: Electric dipole (Debye) =   -0.048860    3.941232   -0.000000

cite: Please see "GC.bib" for an exhaustive BiBTeX file.
cite: Please clearly indicate Siesta version in published work: 5.1-MaX-41-g6ad11e234
cite: This calculation has made use of the following articles
cite: which are encouraged to be cited in a published work.
        Primary SIESTA paper
          DOI: www.doi.org/10.1088/0953-8984/14/11/302
        Spin-orbit coupling (off-site approximation)
          DOI: www.doi.org/10.1088/0953-8984/24/8/086005
        ELPA library
          DOI: www.doi.org/10.1088/0953-8984/26/21/213201

>> End of run:  12-OCT-2024  19:03:36
Job completed