>> Start of run:  14-OCT-2023  16:00:56

reinit: Reading from standard input
reinit: Dumped input in INPUT_TMP.67045
************************** Dump of input data file ****************************
# mpirun -np 4 siesta-4.1.5 < Guanine.fdf > Guanine.out
SystemLabel      Guanine
NumberOfAtoms    16
NumberOfSpecies  4
%block ChemicalSpeciesLabel
    1    1  H
    2    7  N
    3    14 Si
    4    8  O
%endblock ChemicalSpeciesLabel
# This overrides Defaults.fdf configuration
MD.TypeOfRun                CG # CG, Verlet
MD.Steps                    300
AtomicCoordinatesFormat NotScaledCartesianAng
%block AtomicCoordinatesAndAtomicSpecies
    4.96951342   -6.82957340    0.00000000   1       1  H
    4.00901341   -6.40325205    0.00000000   2       2  N
    2.49751554   -7.42359516    0.00000000   3       3  Si
    2.72232203   -8.89829940    0.00000000   1       4  H
    0.96392651   -6.71194524    0.00000000   2       5  N
    1.31707909   -5.02244331    0.00000000   3       6  Si
    0.42403706   -3.13035809    0.00000000   3       7  Si
   -1.14163483   -3.19740443    0.00000000   4       8  O
    1.56371383   -1.63904545    0.00000000   2       9  N
    1.13068289   -0.67264207    0.00000000   1      10  H
    3.32877379   -1.77429730    0.00000000   3      11  Si
    4.05324763   -0.19064027    0.00000000   2      12  N
    3.50564223    0.70888541    0.00000000   1      13  H
    5.09666416   -0.08175574    0.00000000   1      14  H
    4.35514099   -3.14253443    0.00000000   2      15  N
    3.42290527   -4.64017762    0.00000000   3      16  Si
%endblock AtomicCoordinatesAndAtomicSpecies
# Unit Cell
LatticeConstant 1.0 Ang
%block LatticeVectors
    16.818328    0.000000    0.000000
    0.000000   14.230200    0.000000
    0.000000    0.000000   10.224979
%endblock LatticeVectors
%include ../../../../Defaults.fdf
************************** End of input data file *****************************

reinit: -----------------------------------------------------------------------
reinit: System Name:
reinit: -----------------------------------------------------------------------
reinit: System Label: Guanine
reinit: -----------------------------------------------------------------------

initatom: Reading input for the pseudopotentials and atomic orbitals ----------
Species number:   1 Atomic number:    1 Label: H
Species number:   2 Atomic number:    7 Label: N
Species number:   3 Atomic number:   14 Label: Si
Species number:   4 Atomic number:    8 Label: O

Ground state valence configuration:   1s01
Reading pseudopotential information in formatted form from H.psf

Pseudopotential generated from a relativistic atomic calculation

Valence configuration for pseudopotential generation:
1s( 1.00) rc: 0.01
2p( 0.00) rc: 0.60
3d( 0.00) rc: 1.99
4f( 0.00) rc: 2.49
Ground state valence configuration:   2s02  2p03
Reading pseudopotential information in formatted form from N.psf

[...]

Valence configuration for pseudopotential generation:
3s( 2.00) rc: 1.67
3p( 2.00) rc: 2.04
3d( 0.00) rc: 2.89
4f( 0.00) rc: 2.49
Ground state valence configuration:   2s02  2p04
Reading pseudopotential information in formatted form from O.psf

Pseudopotential generated from a relativistic atomic calculation

Valence configuration for pseudopotential generation:
2s( 2.00) rc: 0.45
2p( 4.00) rc: 0.92
3d( 0.00) rc: 2.24
4f( 0.00) rc: 0.25
For H, standard SIESTA heuristics set lmxkb to 2
 (one more than the basis l, including polarization orbitals).
Use PS.lmax or PS.KBprojectors blocks to override.
For N, standard SIESTA heuristics set lmxkb to 3
 (one more than the basis l, including polarization orbitals).
Use PS.lmax or PS.KBprojectors blocks to override.
For Si, standard SIESTA heuristics set lmxkb to 3
 (one more than the basis l, including polarization orbitals).
Use PS.lmax or PS.KBprojectors blocks to override.
For O, standard SIESTA heuristics set lmxkb to 3
 (one more than the basis l, including polarization orbitals).
Use PS.lmax or PS.KBprojectors blocks to override.

<basis_specs>
H                    Z=   1    Mass=  1.0100        Charge= 0.17977+309
Lmxo=0 Lmxkb= 2    BasisType=split      Semic=F
L=0  Nsemic=0  Cnfigmx=1
          i=1  nzeta=2  polorb=1  (1s)
            splnorm:   0.62000
               vcte:    0.0000
               rinn:    0.0000
               qcoe:    0.0000
               qyuk:    0.0000
               qwid:   0.10000E-01
                rcs:    0.0000      0.0000
            lambdas:    1.0000      1.0000
L=0  Nkbl=1  erefs: 0.17977+309
L=1  Nkbl=1  erefs: 0.17977+309
L=2  Nkbl=1  erefs: 0.17977+309
</basis_specs>

atom: Called for H                     (Z =   1)

read_vps: Pseudopotential generation method:
read_vps: ATM4.2.7  Troullier-Martins
Valence charge for ps generation:    1.00000

xc_check: Exchange-correlation functional:
xc_check: GGA Perdew, Burke & Ernzerhof 1996
V l=0 = -2*Zval/r beyond r=  0.0098
V l=1 = -2*Zval/r beyond r=  0.5817
V l=2 = -2*Zval/r beyond r=  1.9372
All V_l potentials equal beyond r=  1.9372
This should be close to max(r_c) in ps generation
All pots = -2*Zval/r beyond r=  1.9372

VLOCAL1: 99.0% of the norm of Vloc inside     11.567 Ry
VLOCAL1: 99.9% of the norm of Vloc inside     26.362 Ry
atom: Maximum radius for 4*pi*r*r*local-pseudopot. charge    2.25106
atom: Maximum radius for r*vlocal+2*Zval:    1.91306
GHOST: No ghost state for L =  0
GHOST: No ghost state for L =  1
GHOST: No ghost state for L =  2

KBgen: Kleinman-Bylander projectors:
   l= 0   rc=  2.036604   el= -0.477180   Ekb= -6.081590   kbcos= -0.277285
   l= 1   rc=  2.195416   el=  0.001076   Ekb= -0.926943   kbcos= -0.034643
   l= 2   rc=  2.251056   el=  0.002010   Ekb= -0.130941   kbcos= -0.009788

KBgen: Total number of Kleinman-Bylander projectors:    9
atom: -------------------------------------------------------------------------

atom: SANKEY-TYPE ORBITALS:
atom: Selected multiple-zeta basis: split

SPLIT: Orbitals with angular momentum L= 0

SPLIT: Basis orbitals for state 1s

SPLIT: PAO cut-off radius determined from an
SPLIT: energy shift=  0.002000 Ry

   izeta = 1
                 lambda =    1.000000
                     rc =    6.518340
                 energy =   -0.475305
                kinetic =    0.912139
    potential(screened) =   -1.387444
       potential(ionic) =   -1.907295

   izeta = 2
                 rmatch =    2.141150
              splitnorm =    0.620000
                 energy =    0.566467
                kinetic =    3.772856
    potential(screened) =   -3.206389
       potential(ionic) =   -3.759093

POLgen: Perturbative polarization orbital with L=  1

POLgen: Polarization orbital for state 1s

   izeta = 1
                     rc =    6.518340
                 energy =    0.533861
                kinetic =    1.121086
    potential(screened) =   -0.587225
       potential(ionic) =   -1.053027
atom: Total number of Sankey-type orbitals:  5

atm_pop: Valence configuration (for local Pseudopot. screening):
 1s( 1.00)
Vna: chval, zval:    1.00000   1.00000

Vna:  Cut-off radius for the neutral-atom potential:   6.518340

atom: _________________________________________________________________________

<basis_specs>
N                    Z=   7    Mass=  14.010        Charge= 0.17977+309
Lmxo=1 Lmxkb= 3    BasisType=split      Semic=F
L=0  Nsemic=0  Cnfigmx=2
          i=1  nzeta=2  polorb=0  (2s)
            splnorm:   0.28000
               vcte:    0.0000
               rinn:    0.0000
               qcoe:    0.0000
               qyuk:    0.0000
               qwid:   0.10000E-01
                rcs:    0.0000      0.0000
            lambdas:    1.0000      1.0000
L=1  Nsemic=0  Cnfigmx=2
          i=1  nzeta=2  polorb=1  (2p)
            splnorm:   0.28000
               vcte:    0.0000
               rinn:    0.0000
               qcoe:    0.0000
               qyuk:    0.0000
               qwid:   0.10000E-01
                rcs:    0.0000      0.0000
            lambdas:    1.0000      1.0000
L=0  Nkbl=1  erefs: 0.17977+309
L=1  Nkbl=1  erefs: 0.17977+309
L=2  Nkbl=1  erefs: 0.17977+309
L=3  Nkbl=1  erefs: 0.17977+309
</basis_specs>

[...]

KBgen: Kleinman-Bylander projectors:
   l= 0   rc=  3.417763   el= -1.365098   Ekb= -4.433130   kbcos= -0.707855
   l= 1   rc=  3.375302   el= -0.521201   Ekb=-13.264039   kbcos= -0.535594
   l= 2   rc=  3.872880   el=  0.001991   Ekb= -0.641094   kbcos= -0.062456
   l= 3   rc=  3.970931   el=  0.003093   Ekb= -0.474517   kbcos= -0.018236

[...]

SPLIT: Basis orbitals for state 2p

[...]

POLgen: Polarization orbital for state 2p

[...]

atm_pop: Valence configuration (for local Pseudopot. screening):
 2s( 2.00)
 2p( 3.00)
Vna: chval, zval:    5.00000   5.00000

[...]

KBgen: Kleinman-Bylander projectors:
   l= 0   rc=  3.075247   el= -0.794092   Ekb=  5.879390   kbcos=  0.167461
   l= 1   rc=  3.153101   el= -0.300068   Ekb=  2.642817   kbcos=  0.058301
   l= 2   rc=  3.273594   el=  0.001958   Ekb= -1.185135   kbcos= -0.104411
   l= 3   rc=  3.232927   el=  0.003046   Ekb= -0.497174   kbcos= -0.015889

[...]

<basis_specs>
O                    Z=   8    Mass=  16.000        Charge= 0.17977+309
Lmxo=1 Lmxkb= 3    BasisType=split      Semic=F
L=0  Nsemic=0  Cnfigmx=2
          i=1  nzeta=2  polorb=0  (2s)
            splnorm:   0.28000
               vcte:    0.0000
               rinn:    0.0000
               qcoe:    0.0000
               qyuk:    0.0000
               qwid:   0.10000E-01
                rcs:    0.0000      0.0000
            lambdas:    1.0000      1.0000
L=1  Nsemic=0  Cnfigmx=2
          i=1  nzeta=2  polorb=1  (2p)
            splnorm:   0.28000
               vcte:    0.0000
               rinn:    0.0000
               qcoe:    0.0000
               qyuk:    0.0000
               qwid:   0.10000E-01
                rcs:    0.0000      0.0000
            lambdas:    1.0000      1.0000
L=0  Nkbl=1  erefs: 0.17977+309
L=1  Nkbl=1  erefs: 0.17977+309
L=2  Nkbl=1  erefs: 0.17977+309
L=3  Nkbl=1  erefs: 0.17977+309
</basis_specs>

atom: Called for O                     (Z =   8)

read_vps: Pseudopotential generation method:
read_vps: ATM4.2.7  Troullier-Martins
Valence charge for ps generation:    6.00000

xc_check: Exchange-correlation functional:
xc_check: GGA Perdew, Burke & Ernzerhof 1996
V l=0 = -2*Zval/r beyond r=  1.1000
V l=1 = -2*Zval/r beyond r=  1.1000
V l=2 = -2*Zval/r beyond r=  2.2154
V l=3 = -2*Zval/r beyond r=  1.1000
All V_l potentials equal beyond r=  2.2154
This should be close to max(r_c) in ps generation
All pots = -2*Zval/r beyond r=  2.2154

VLOCAL1: 99.0% of the norm of Vloc inside      8.845 Ry
VLOCAL1: 99.9% of the norm of Vloc inside     20.157 Ry
atom: Maximum radius for 4*pi*r*r*local-pseudopot. charge    2.67231
atom: Maximum radius for r*vlocal+2*Zval:    2.32897
GHOST: No ghost state for L =  0
GHOST: No ghost state for L =  1
GHOST: No ghost state for L =  2
GHOST: No ghost state for L =  3

KBgen: Kleinman-Bylander projectors:
   l= 0   rc=  2.243238   el= -1.759686   Ekb=**********   kbcos= -0.171774
   l= 1   rc=  2.328968   el= -0.663873   Ekb=-14.506792   kbcos= -0.519897
[...]
    3.50305287    0.44278792    0.00000005   1      13  H
    5.08247092   -0.35479414   -0.00000003   1      14  H
    4.56478883   -3.33381428    0.00003097   2      15  N
    3.72019846   -4.86381276   -0.00006919   3      16  Si

outcell: Unit cell vectors (Ang):
       16.818328    0.000000    0.000000
        0.000000   14.230200    0.000000
        0.000000    0.000000   10.224979

outcell: Cell vector modules (Ang)   :   16.818328   14.230200   10.224979
outcell: Cell angles (23,13,12) (deg):     90.0000     90.0000     90.0000
outcell: Cell volume (Ang**3)        :   2447.1255
Gamma-point calculation with multiply-connected orbital pairs
Folding of H and S implicitly performed
<dSpData1D:S at geom step 215
  <sparsity:sparsity for geom step 215
    nrows_g=168 nrows=10 sparsity=.0579 nnzs=1635, refcount: 8>
  <dData1D:(new from dSpData1D) n=1635, refcount: 1>
refcount: 1>
new_DM -- step:   216
Re-using DM from previous geometries...
Number of DMs in history: 1
 DM extrapolation coefficients:
1   1.00000
New DM after history re-use:
<dSpData2D:SpM extrapolated using coords
  <sparsity:sparsity for geom step 215
    nrows_g=168 nrows=10 sparsity=.0579 nnzs=1635, refcount: 10>
  <dData2D:(temp array for extrapolation) n=1635 m=8, refcount: 1>
refcount: 1>
     spin moment: S , {S} =    0.00000  -0.00000  -0.00000  -0.00000
No. of atoms with KB's overlaping orbs in proc 0. Max # of overlaps:      16     142
New grid distribution:   1
           1       1:   96    1:   20    1:    8
           2       1:   96    1:   20    9:   16
           3       1:   96    1:   20   17:   24
           4       1:   96    1:   20   25:   32
           5       1:   96    1:   20   33:   39
           6       1:   96    1:   20   40:   46
           7       1:   96    1:   20   47:   53
           8       1:   96    1:   20   54:   60
           9       1:   96   21:   40    1:    8
          10       1:   96   21:   40    9:   16
          11       1:   96   21:   40   17:   24
          12       1:   96   21:   40   25:   32
          13       1:   96   21:   40   33:   39
          14       1:   96   21:   40   40:   46
          15       1:   96   21:   40   47:   53
          16       1:   96   21:   40   54:   60
          17       1:   96   41:   60    1:    8
          18       1:   96   41:   60    9:   16
          19       1:   96   41:   60   17:   24
          20       1:   96   41:   60   25:   32
          21       1:   96   41:   60   33:   39
          22       1:   96   41:   60   40:   46
          23       1:   96   41:   60   47:   53
          24       1:   96   41:   60   54:   60
          25       1:   96   61:   80    1:    8
          26       1:   96   61:   80    9:   16
          27       1:   96   61:   80   17:   24
          28       1:   96   61:   80   25:   32
          29       1:   96   61:   80   33:   39
          30       1:   96   61:   80   40:   46
          31       1:   96   61:   80   47:   53
          32       1:   96   61:   80   54:   60

InitMesh: MESH =   192 x   160 x   120 =     3686400
InitMesh: (bp) =    96 x    80 x    60 =      460800
InitMesh: Mesh cutoff (required, used) =   340.000   349.397 Ry
ExtMesh (bp) on 0 =   200 x   124 x   116 =     2876800
New grid distribution:   2
           1       1:   12    1:   44    1:   21
           2      20:   27   44:   54   20:   60
           3      12:   19   67:   80    1:   20
           4      28:   96    1:   44   20:   60
           5      29:   96   65:   80    1:   19
           6      20:   27    1:   43    1:   19
           7      12:   19   56:   66   21:   60
           8       1:   11   56:   65    1:   20
           9      28:   96    1:   44    1:   19
          10       1:   11   66:   80    1:   20
          11      20:   28   55:   65    1:   19
          12      13:   19    1:   44   22:   60
          13       1:   12    1:   44   22:   60
          14      13:   19    1:   44    1:   21
          15      13:   19   45:   55   22:   60
          16      12:   19   56:   66    1:   20
          17      28:   96   45:   54    1:   19
          18       1:   12   45:   55    1:   21
          19      20:   27   55:   65   20:   60
          20      28:   96   45:   54   20:   60
          21      28:   96   55:   64   20:   60
          22       1:   12   45:   55   22:   60
          23       1:   11   56:   65   21:   60
          24      20:   27   44:   54    1:   19
          25      29:   96   55:   64    1:   19
          26      20:   28   66:   80    1:   19
          27      12:   19   67:   80   21:   60
          28      28:   96   65:   80   20:   60
          29      20:   27    1:   43   20:   60
          30       1:   11   66:   80   21:   60
          31      20:   27   66:   80   20:   60
          32      13:   19   45:   55    1:   21
New grid distribution:   3
           1       1:   14    1:   27    1:   25
           2      14:   26   63:   80   27:   60
           3      15:   26    1:   24    1:   25
           4      39:   96    1:   38   24:   60
           5      50:   96   64:   80    1:   24
           6       1:   14    1:   27   26:   60
           7       1:   13   45:   61   27:   60
           8      14:   26   63:   80    1:   26
           9      39:   96    1:   38    1:   23
          10      27:   38    1:   28    1:   23
          11      27:   38   29:   50    1:   23
          12      27:   38    1:   29   24:   60
          13      39:   96   39:   50    1:   23
          14      15:   26    1:   25   26:   60
          15       1:   14   28:   44   26:   60
          16      15:   26   25:   44    1:   25
          17      50:   96   51:   63    1:   24
          18      27:   49   51:   65    1:   24
          19      14:   26   45:   62    1:   26
          20      39:   96   39:   50   24:   60
          21      27:   65   51:   65   25:   60
          22      66:   96   51:   63   25:   60
          23      15:   26   26:   44   26:   60
          24       1:   14   28:   44    1:   25
          25      27:   38   30:   50   24:   60
          26      27:   49   66:   80    1:   24
          27       1:   13   62:   80    1:   26
          28      27:   65   66:   80   25:   60
          29      66:   96   64:   80   25:   60
          30       1:   13   62:   80   27:   60
          31      14:   26   45:   62   27:   60
          32       1:   13   45:   61    1:   26
Setting up quadratic distribution...
ExtMesh (bp) on 0 =   116 x   148 x   129 =     2214672
PhiOnMesh: Number of (b)points on node 0 =                11088
PhiOnMesh: nlist on node 0 =               223785

        iscf     Eharris(eV)        E_KS(eV)     FreeEng(eV)     dDmax    Ef(eV) dHmax(eV)
   scf:    1    -2396.260186    -2396.261016    -2396.261016  0.000045 -3.831443  0.002575
     spin moment: S , {S} =    0.00000  -0.00000  -0.00000  -0.00000
   scf:    2    -2396.261002    -2396.261012    -2396.261012  0.000240 -3.831026  0.010901
     spin moment: S , {S} =    0.00000  -0.00000  -0.00000  -0.00000
   scf:    3    -2396.261018    -2396.261017    -2396.261017  0.000193 -3.831326  0.000207
     spin moment: S , {S} =    0.00000  -0.00000  -0.00000  -0.00000
   scf:    4    -2396.261017    -2396.261017    -2396.261017  0.000002 -3.831307  0.000102
     spin moment: S , {S} =    0.00000  -0.00000  -0.00000  -0.00000
   scf:    5    -2396.261017    -2396.261017    -2396.261017  0.000001 -3.831301  0.000044
     spin moment: S , {S} =    0.00000  -0.00000  -0.00000  -0.00000
   scf:    6    -2396.261017    -2396.261017    -2396.261017  0.000001 -3.831299  0.000009
     spin moment: S , {S} =    0.00000  -0.00000  -0.00000  -0.00000
   scf:    7    -2396.261017    -2396.261017    -2396.261017  0.000000 -3.831299  0.000004
     spin moment: S , {S} =    0.00000  -0.00000  -0.00000  -0.00000
   scf:    8    -2396.261017    -2396.261017    -2396.261017  0.000000 -3.831298  0.000001
     spin moment: S , {S} =    0.00000  -0.00000  -0.00000  -0.00000
   scf:    9    -2396.261017    -2396.261017    -2396.261017  0.000000 -3.831298  0.000000
     spin moment: S , {S} =    0.00000  -0.00000  -0.00000  -0.00000

SCF Convergence by DM+H criterion
max |DM_out - DM_in|         :     0.0000000191
max |H_out - H_in|      (eV) :     0.0000004532
SCF cycle converged after 9 iterations

Using DM_out to compute the final energy and forces
No. of atoms with KB's overlaping orbs in proc 0. Max # of overlaps:      16     142

siesta: E_KS(eV) =            -2396.2610
     spin moment: S , {S} =    0.00000  -0.00000  -0.00000  -0.00000

siesta: Atomic forces (eV/Ang):
     1    0.002202   -0.000005   -0.000001
     2    0.001018   -0.000175   -0.000017
     3   -0.000995    0.002441   -0.000120
     4    0.001862    0.001655   -0.000002
     5    0.003486   -0.000941   -0.000035
     6   -0.000548   -0.000352    0.000622
     7    0.001212    0.000272   -0.000281
     8    0.001075   -0.001617    0.002687
     9   -0.003144   -0.000882    0.000012
    10    0.000955    0.000238   -0.000004
    11   -0.000499    0.000078    0.000015
    12   -0.001928    0.001720   -0.000020
    13   -0.000421   -0.001125   -0.000000
    14   -0.002143   -0.000064   -0.000000
    15    0.001170    0.001389    0.000113
    16    0.002416    0.000087   -0.000139
   Tot    0.005717    0.002719    0.002828
   Max    0.003486
   Res    0.001286    sqrt( Sum f_i^2 / 3N )
   Max    0.003486    constrained

Stress tensor Voigt[x,y,z,yz,xz,xy] (kbar):       -0.87       -0.33       -0.18        0.00       -0.00        0.31
(Free)E + p*V (eV/cell)    -2395.5575
Target enthalpy (eV/cell)    -2396.2610

outcoor: Relaxed atomic coordinates (Ang):
    5.51993147   -6.75864714   -0.00000052   1       1  H
    4.49418071   -6.51292476   -0.00001145   2       2  N
    3.19299684   -7.75477845   -0.00005568   3       3  Si
    3.67934250   -9.16242528    0.00000004   1       4  H
    1.56099747   -7.26905763   -0.00003572   2       5  N
    1.60862386   -5.46691202    0.00028950   3       6  Si
    0.40534443   -3.59065243   -0.00012068   3       7  Si
   -1.13726093   -3.20141150   -0.00001439   4       8  O
    1.64738352   -2.18050179    0.00000406   2       9  N
    1.13768814   -1.24603335    0.00000078   1      10  H
    3.40349423   -2.08435181    0.00000441   3      11  Si
    4.03832178   -0.46232444   -0.00000815   2      12  N
    3.50305287    0.44278792    0.00000005   1      13  H
    5.08247092   -0.35479414   -0.00000003   1      14  H
    4.56478883   -3.33381428    0.00003097   2      15  N
    3.72019846   -4.86381276   -0.00006919   3      16  Si

siesta: Eigenvalues (eV):
ik =     1
  -22.1787  -22.1787  -22.0029  -22.0029  -21.5548  -21.5548  -21.1610  -21.1610  -20.0986  -20.0986
  -19.6851  -19.6851  -14.1940  -14.1940  -13.4663  -13.4663  -13.3800  -13.3800  -13.1213  -13.1213
  -12.8018  -12.8018  -11.7108  -11.7108  -11.0291  -11.0291  -10.9478  -10.9478   -9.5114   -9.5114
   -9.1859   -9.1859   -8.9667   -8.9667   -8.8888   -8.8888   -8.4663   -8.4663   -7.9434   -7.9434
   -7.6308   -7.6308   -7.5510   -7.5510   -7.1264   -7.1264   -6.8104   -6.8104   -6.4974   -6.4974
   -6.4575   -6.4575   -6.0290   -6.0290   -4.6046   -4.6046   -2.6049   -2.6049   -2.4571   -2.4571
   -2.1781   -2.1781   -2.1387   -2.1387   -1.7867   -1.7867   -1.3011   -1.3011   -1.0988   -1.0988
   -0.6872   -0.6872    0.1237    0.1237    0.1517    0.1517    0.3316    0.3316    0.5440    0.5440
    1.0212    1.0212    1.2093    1.2093    1.4890    1.4890    2.0408    2.0408    2.4403    2.4403
    2.4738    2.4738    2.7772    2.7772    3.0800    3.0800    3.4464    3.4464    3.5048    3.5048
    4.1462    4.1462    4.3509    4.3509    4.5116    4.5116    4.7994    4.7994    4.9738    4.9738
    5.4290    5.4290    5.5277    5.5277    5.6399    5.6399    5.7079    5.7079    6.1073    6.1073
    6.3886    6.3886    6.8716    6.8716    7.0992    7.0992    7.2667    7.2667    7.4824    7.4824
    8.0265    8.0265    8.3245    8.3245    8.4149    8.4149    8.5447    8.5447    8.9055    8.9055
    8.9446    8.9446    9.5803    9.5803    9.7136    9.7136   10.1461   10.1461   10.5903   10.5903
   10.6503   10.6503   10.7266   10.7266   11.6014   11.6014   11.6827   11.6827   11.8431   11.8431
   12.1057   12.1057   12.5177   12.5177   13.1425   13.1425   13.4694   13.4694   14.0345   14.0345
   14.2443   14.2443   14.5213   14.5213   15.9017   15.9017   16.1117   16.1117   16.6787   16.6787
   18.0173   18.0173   18.1729   18.1729   18.4377   18.4377   19.1461   19.1461   19.7890   19.7890
   21.6061   21.6061   22.4175   22.4175   23.0113   23.0113   23.1524   23.1524   23.7491   23.7491
   25.0138   25.0138   26.6611   26.6611   28.5332   28.5332   29.2099   29.2099   29.5623   29.5623
   29.7435   29.7435   29.9849   29.9849   30.5851   30.5851   30.7384   30.7384   30.7426   30.7426
   32.0949   32.0949   33.7705   33.7705   34.3562   34.3562   34.7932   34.7932   35.2311   35.2311
   35.2608   35.2608   36.4691   36.4691   36.5605   36.5605   37.0308   37.0308   37.2467   37.2467
   38.1410   38.1410   39.0941   39.0941   39.8908   39.8908   40.2083   40.2083   40.8012   40.8012
   40.8718   40.8718   41.2403   41.2403   42.8180   42.8180   43.0711   43.0711   43.6454   43.6454
   43.6891   43.6891   44.4048   44.4048   44.5507   44.5507   45.1440   45.1440   46.0893   46.0893
   46.6662   46.6662   47.3108   47.3108   49.1153   49.1153   49.1647   49.1647   50.2000   50.2000
   50.9893   50.9893   51.6632   51.6632   52.3990   52.3990   54.3654   54.3654   54.6557   54.6557
   55.6151   55.6151   56.1729   56.1729   58.0434   58.0434   58.8411   58.8411   60.2291   60.2291
   61.0126   61.0126   61.7806   61.7806   61.9141   61.9141   64.2354   64.2354   66.8172   66.8172
   67.1391   67.1391   68.1287   68.1287   70.9103   70.9103   73.5096   73.5096   90.5175   90.5175
   93.2491   93.2491   97.7028   97.7028  102.9962  102.9962  103.1515  103.1515  109.6564  109.6564
  123.9615  123.9615  130.8709  130.8709  140.7124  140.7124
siesta: Fermi energy =      -3.831298 eV

siesta: Program's energy decomposition (eV):
siesta: Ebs     =      -666.003721
siesta: Eions   =      2040.955082
siesta: Ena     =       223.330859
siesta: Ekin    =      1680.581538
siesta: Enl     =     -1652.082486
siesta: Eso     =        -0.002391
siesta: Edftu   =         0.000000
siesta: DEna    =        30.252788
siesta: DUscf   =         8.096378
siesta: DUext   =         0.000000
siesta: Exc     =      -645.482621
siesta: eta*DQ  =         0.000000
siesta: Emadel  =         0.000000
siesta: Emeta   =         0.000000
siesta: Emolmec =         0.000000
siesta: Ekinion =         0.000000
siesta: Eharris =     -2396.261017
siesta: Etot    =     -2396.261017
siesta: FreeEng =     -2396.261017

siesta: Final energy (eV):
siesta:  Band Struct. =    -666.003721
siesta:       Kinetic =    1680.581538
siesta:       Hartree =    3956.963491
siesta:       Edftu   =       0.000000
siesta:       Eso     =      -0.002391
siesta:    Ext. field =       0.000000
siesta:   Exch.-corr. =    -645.482621
siesta:  Ion-electron =   -9422.444566
siesta:       Ion-ion =    2034.123532
siesta:       Ekinion =       0.000000
siesta:         Total =   -2396.261017
siesta:         Fermi =      -3.831298

siesta: Stress tensor (static) (eV/Ang**3):
siesta:    -0.000546    0.000196   -0.000000
siesta:     0.000196   -0.000203    0.000000
siesta:    -0.000000    0.000000   -0.000114

siesta: Cell volume =       2447.125524 Ang**3

siesta: Pressure (static):
siesta:                Solid            Molecule  Units
siesta:           0.00000313          0.00000316  Ry/Bohr**3
siesta:           0.00028748          0.00028993  eV/Ang**3
siesta:           0.46060053          0.46451669  kBar
(Free)E+ p_basis*V_orbitals  =       -2385.271341
(Free)Eharris+ p_basis*V_orbitals  =       -2385.271341
     spin moment: S , {S} =    0.00000  -0.00000  -0.00000  -0.00000

siesta: Electric dipole (a.u.)  =    3.159857   -0.000000   -0.000082
siesta: Electric dipole (Debye) =    8.031562   -0.000000   -0.000209

cite: Please see "Guanine.bib" for an exhaustive BiBTeX file.
cite: Please clearly indicate Siesta version in published work: v4.1.5-1-g384057250
cite: This calculation has made use of the following articles
cite: which are encouraged to be cited in a published work.
        Primary SIESTA paper
          DOI: www.doi.org/10.1088/0953-8984/14/11/302
        Spin-orbit coupling (on-site approximation)
          DOI: www.doi.org/10.1088/0953-8984/19/19/489001

WARNING: alloc-realloc-dealloc name mismatch
         Name: atomlist isa
         Node:     0
         Subsequent mismatches will not be reported
>> End of run:  14-OCT-2023  16:44:33
Job completed