>> Start of run:  22-MAY-2023   9:31:50

reinit: Reading from standard input
reinit: Dumped input in INPUT_TMP.13391
************************** Dump of input data file ****************************
SystemLabel      AT
NumberOfAtoms    30
NumberOfSpecies  4
%block ChemicalSpeciesLabel
    1    1  H
    2    7  N
    3   14  Si
    4    8  O
%endblock ChemicalSpeciesLabel
# Single point calculation
MD.TypeOfRun                CG
MD.Steps                    0
SCF.MustConverge            F # In case it does not. There can be 2 very close atoms
AtomicCoordinatesFormat NotScaledCartesianAng
%block AtomicCoordinatesAndAtomicSpecies
2.582377650    -5.776830440   0.000000000       1
1.654759240    -5.269361980   0.000000000       2
0.063128840    -6.101704590   0.000000000       3
0.119223240    -7.596849500   0.000000000       1
-1.376892050   -5.182603740   0.000000000       2
-0.824371900   -3.460866440   0.000000000       3
-1.170571480   -1.270002100   0.000000000       3
-2.706933680   -0.417515780   0.000000000       2
-2.754569660   0.634858620    0.000000000       1
-3.637675640   -0.909967860   0.000000000       1
0.218091790    -0.234193970   0.000000000       2
1.872004100    -0.697162300   0.000000000       3
2.828001130    0.461464770    0.000000000       1
2.648150080    -2.255024470   0.000000000       2
1.391921380    -3.454727220   0.000000000       3
1.910035206    4.119473043    0.000000000       2
0.582663686    5.329677343    0.000000000       3
1.222664956    6.690995583    0.000000000       1
-1.503082254   4.659145993    0.000000000       3
-3.532644854   5.789262183    0.000000000       3
-3.378409084   6.949492393    0.940305280       1
-4.518579574   4.767341563    0.512613700       1
-3.948859814   6.265488033    -1.366678340      1
-1.436586834   2.385169373    0.000000000       3
-2.475635564   1.192109873    0.000000000       4
0.220404746    1.751194183    0.000000000       2
0.202387376    0.688749353    0.000000000       1
1.844007816    2.348264393    0.000000000       3
3.039023986    1.333839193    0.000000000       4
2.910072576    4.464980143    0.000000000       1
%endblock AtomicCoordinatesAndAtomicSpecies
%include ../../../Defaults.fdf
************************** End of input data file *****************************

reinit: -----------------------------------------------------------------------
reinit: System Name:
reinit: -----------------------------------------------------------------------
reinit: System Label: AT
reinit: -----------------------------------------------------------------------

initatom: Reading input for the pseudopotentials and atomic orbitals ----------
Species number:   1 Atomic number:    1 Label: H
Species number:   2 Atomic number:    7 Label: N
Species number:   3 Atomic number:   14 Label: Si
Species number:   4 Atomic number:    8 Label: O

Ground state valence configuration:   1s01
Reading pseudopotential information in formatted form from H.psf

Pseudopotential generated from a relativistic atomic calculation

Valence configuration for pseudopotential generation:
1s( 1.00) rc: 0.01
2p( 0.00) rc: 0.60
3d( 0.00) rc: 1.99
4f( 0.00) rc: 2.49
Ground state valence configuration:   2s02  2p03
Reading pseudopotential information in formatted form from N.psf

[...]

Valence configuration for pseudopotential generation:
3s( 2.00) rc: 1.67
3p( 2.00) rc: 2.04
3d( 0.00) rc: 2.89
4f( 0.00) rc: 2.49
Ground state valence configuration:   2s02  2p04
Reading pseudopotential information in formatted form from O.psf

Pseudopotential generated from a relativistic atomic calculation

Valence configuration for pseudopotential generation:
2s( 2.00) rc: 0.45
2p( 4.00) rc: 0.92
3d( 0.00) rc: 2.24
4f( 0.00) rc: 0.25
For H, standard SIESTA heuristics set lmxkb to 2
 (one more than the basis l, including polarization orbitals).
Use PS.lmax or PS.KBprojectors blocks to override.
For N, standard SIESTA heuristics set lmxkb to 3
 (one more than the basis l, including polarization orbitals).
Use PS.lmax or PS.KBprojectors blocks to override.
For Si, standard SIESTA heuristics set lmxkb to 3
 (one more than the basis l, including polarization orbitals).
Use PS.lmax or PS.KBprojectors blocks to override.
For O, standard SIESTA heuristics set lmxkb to 3
 (one more than the basis l, including polarization orbitals).
Use PS.lmax or PS.KBprojectors blocks to override.

<basis_specs>
H                    Z=   1    Mass=  1.0100        Charge= 0.17977+309
Lmxo=0 Lmxkb= 2    BasisType=split      Semic=F
L=0  Nsemic=0  Cnfigmx=1
          i=1  nzeta=2  polorb=1  (1s)
            splnorm:   0.62000
               vcte:    0.0000
               rinn:    0.0000
               qcoe:    0.0000
               qyuk:    0.0000
               qwid:   0.10000E-01
                rcs:    0.0000      0.0000
            lambdas:    1.0000      1.0000
L=0  Nkbl=1  erefs: 0.17977+309
L=1  Nkbl=1  erefs: 0.17977+309
L=2  Nkbl=1  erefs: 0.17977+309
</basis_specs>

atom: Called for H                     (Z =   1)

read_vps: Pseudopotential generation method:
read_vps: ATM4.2.7  Troullier-Martins
Valence charge for ps generation:    1.00000

xc_check: Exchange-correlation functional:
xc_check: GGA Perdew, Burke & Ernzerhof 1996
V l=0 = -2*Zval/r beyond r=  0.0098
V l=1 = -2*Zval/r beyond r=  0.5817
V l=2 = -2*Zval/r beyond r=  1.9372
All V_l potentials equal beyond r=  1.9372
This should be close to max(r_c) in ps generation
All pots = -2*Zval/r beyond r=  1.9372

VLOCAL1: 99.0% of the norm of Vloc inside     11.567 Ry
VLOCAL1: 99.9% of the norm of Vloc inside     26.362 Ry
atom: Maximum radius for 4*pi*r*r*local-pseudopot. charge    2.25106
atom: Maximum radius for r*vlocal+2*Zval:    1.91306
GHOST: No ghost state for L =  0
GHOST: No ghost state for L =  1
GHOST: No ghost state for L =  2

KBgen: Kleinman-Bylander projectors:
   l= 0   rc=  2.036604   el= -0.477180   Ekb= -6.081590   kbcos= -0.277285
   l= 1   rc=  2.195416   el=  0.001076   Ekb= -0.926943   kbcos= -0.034643
   l= 2   rc=  2.251056   el=  0.002010   Ekb= -0.130941   kbcos= -0.009788

KBgen: Total number of Kleinman-Bylander projectors:    9
atom: -------------------------------------------------------------------------

atom: SANKEY-TYPE ORBITALS:
atom: Selected multiple-zeta basis: split

SPLIT: Orbitals with angular momentum L= 0

SPLIT: Basis orbitals for state 1s

SPLIT: PAO cut-off radius determined from an
SPLIT: energy shift=  0.002000 Ry

   izeta = 1
                 lambda =    1.000000
                     rc =    6.518340
                 energy =   -0.475305
                kinetic =    0.912139
    potential(screened) =   -1.387444
       potential(ionic) =   -1.907295

   izeta = 2
                 rmatch =    2.141150
              splitnorm =    0.620000
                 energy =    0.566467
                kinetic =    3.772856
    potential(screened) =   -3.206389
       potential(ionic) =   -3.759093

POLgen: Perturbative polarization orbital with L=  1

POLgen: Polarization orbital for state 1s

   izeta = 1
                     rc =    6.518340
                 energy =    0.533861
                kinetic =    1.121086
    potential(screened) =   -0.587225
       potential(ionic) =   -1.053027
atom: Total number of Sankey-type orbitals:  5

atm_pop: Valence configuration (for local Pseudopot. screening):
 1s( 1.00)
Vna: chval, zval:    1.00000   1.00000

Vna:  Cut-off radius for the neutral-atom potential:   6.518340

atom: _________________________________________________________________________

<basis_specs>
N                    Z=   7    Mass=  14.010        Charge= 0.17977+309
Lmxo=1 Lmxkb= 3    BasisType=split      Semic=F
L=0  Nsemic=0  Cnfigmx=2
          i=1  nzeta=2  polorb=0  (2s)
            splnorm:   0.28000
               vcte:    0.0000
               rinn:    0.0000
               qcoe:    0.0000
               qyuk:    0.0000
               qwid:   0.10000E-01
                rcs:    0.0000      0.0000
            lambdas:    1.0000      1.0000
L=1  Nsemic=0  Cnfigmx=2
          i=1  nzeta=2  polorb=1  (2p)
            splnorm:   0.28000
               vcte:    0.0000
               rinn:    0.0000
               qcoe:    0.0000
               qyuk:    0.0000
               qwid:   0.10000E-01
                rcs:    0.0000      0.0000
            lambdas:    1.0000      1.0000
L=0  Nkbl=1  erefs: 0.17977+309
L=1  Nkbl=1  erefs: 0.17977+309
L=2  Nkbl=1  erefs: 0.17977+309
L=3  Nkbl=1  erefs: 0.17977+309
</basis_specs>

[...]

KBgen: Kleinman-Bylander projectors:
   l= 0   rc=  3.417763   el= -1.365098   Ekb= -4.433130   kbcos= -0.707855
   l= 1   rc=  3.375302   el= -0.521201   Ekb=-13.264039   kbcos= -0.535594
   l= 2   rc=  3.872880   el=  0.001991   Ekb= -0.641094   kbcos= -0.062456
   l= 3   rc=  3.970931   el=  0.003093   Ekb= -0.474517   kbcos= -0.018236

[...]

SPLIT: Basis orbitals for state 2p

[...]

POLgen: Polarization orbital for state 2p

[...]

atm_pop: Valence configuration (for local Pseudopot. screening):
 2s( 2.00)
 2p( 3.00)
Vna: chval, zval:    5.00000   5.00000

[...]

KBgen: Kleinman-Bylander projectors:
   l= 0   rc=  3.075247   el= -0.794092   Ekb=  5.879390   kbcos=  0.167461
   l= 1   rc=  3.153101   el= -0.300068   Ekb=  2.642817   kbcos=  0.058301
   l= 2   rc=  3.273594   el=  0.001958   Ekb= -1.185135   kbcos= -0.104411
   l= 3   rc=  3.232927   el=  0.003046   Ekb= -0.497174   kbcos= -0.015889

[...]

<basis_specs>
O                    Z=   8    Mass=  16.000        Charge= 0.17977+309
Lmxo=1 Lmxkb= 3    BasisType=split      Semic=F
L=0  Nsemic=0  Cnfigmx=2
          i=1  nzeta=2  polorb=0  (2s)
            splnorm:   0.28000
               vcte:    0.0000
               rinn:    0.0000
               qcoe:    0.0000
               qyuk:    0.0000
               qwid:   0.10000E-01
                rcs:    0.0000      0.0000
            lambdas:    1.0000      1.0000
L=1  Nsemic=0  Cnfigmx=2
          i=1  nzeta=2  polorb=1  (2p)
            splnorm:   0.28000
               vcte:    0.0000
               rinn:    0.0000
               qcoe:    0.0000
               qyuk:    0.0000
               qwid:   0.10000E-01
                rcs:    0.0000      0.0000
            lambdas:    1.0000      1.0000
L=0  Nkbl=1  erefs: 0.17977+309
L=1  Nkbl=1  erefs: 0.17977+309
L=2  Nkbl=1  erefs: 0.17977+309
L=3  Nkbl=1  erefs: 0.17977+309
</basis_specs>

atom: Called for O                     (Z =   8)

read_vps: Pseudopotential generation method:
read_vps: ATM4.2.7  Troullier-Martins
Valence charge for ps generation:    6.00000

xc_check: Exchange-correlation functional:
xc_check: GGA Perdew, Burke & Ernzerhof 1996
V l=0 = -2*Zval/r beyond r=  1.1000
V l=1 = -2*Zval/r beyond r=  1.1000
V l=2 = -2*Zval/r beyond r=  2.2154
V l=3 = -2*Zval/r beyond r=  1.1000
All V_l potentials equal beyond r=  2.2154
This should be close to max(r_c) in ps generation
All pots = -2*Zval/r beyond r=  2.2154

VLOCAL1: 99.0% of the norm of Vloc inside      8.845 Ry
VLOCAL1: 99.9% of the norm of Vloc inside     20.157 Ry
atom: Maximum radius for 4*pi*r*r*local-pseudopot. charge    2.67231
atom: Maximum radius for r*vlocal+2*Zval:    2.32897
GHOST: No ghost state for L =  0
[...]
   scf:   30    -3972.160019    -3972.160019    -3972.160065  0.000004 -3.811652  0.000036
     spin moment: S , {S} =    0.00000   0.00000  -0.00000   0.00000
   scf:   31    -3972.160019    -3972.160019    -3972.160065  0.000004 -3.811651  0.000021
     spin moment: S , {S} =    0.00000  -0.00000  -0.00000   0.00000
   scf:   32    -3972.160019    -3972.160019    -3972.160065  0.000002 -3.811651  0.000010
     spin moment: S , {S} =    0.00000  -0.00000  -0.00000   0.00000
   scf:   33    -3972.160019    -3972.160019    -3972.160065  0.000001 -3.811651  0.000008
     spin moment: S , {S} =    0.00000  -0.00000  -0.00000   0.00000
   scf:   34    -3972.160019    -3972.160019    -3972.160065  0.000001 -3.811651  0.000006
     spin moment: S , {S} =    0.00000  -0.00000  -0.00000   0.00000
   scf:   35    -3972.160019    -3972.160019    -3972.160065  0.000001 -3.811651  0.000005
     spin moment: S , {S} =    0.00000  -0.00000  -0.00000   0.00000
   scf:   36    -3972.160019    -3972.160019    -3972.160065  0.000000 -3.811651  0.000003
     spin moment: S , {S} =    0.00000  -0.00000  -0.00000   0.00000
   scf:   37    -3972.160019    -3972.160019    -3972.160065  0.000000 -3.811651  0.000001
     spin moment: S , {S} =    0.00000  -0.00000  -0.00000   0.00000
   scf:   38    -3972.160019    -3972.160019    -3972.160065  0.000000 -3.811651  0.000001
     spin moment: S , {S} =    0.00000  -0.00000  -0.00000   0.00000

SCF Convergence by DM+H criterion
max |DM_out - DM_in|         :     0.0000000871
max |H_out - H_in|      (eV) :     0.0000009056
SCF cycle converged after 38 iterations

Using DM_out to compute the final energy and forces
No. of atoms with KB's overlaping orbs in proc 0. Max # of overlaps:      24     228

siesta: E_KS(eV) =            -3972.1600

siesta: E_KS - E_eggbox =     -3972.1600
     spin moment: S , {S} =    0.00000  -0.00000  -0.00000   0.00000

siesta: Atomic forces (eV/Ang):
     1   -0.020085    0.008582    0.000051
     2   -0.099836   -0.309009   -0.000116
     3    0.148214    0.083858   -0.000207
     4   -0.084708   -0.051085    0.000112
     5   -0.052379   -0.041414    0.000248
     6    0.176349    0.021480    0.000919
     7   -2.609623   -1.088262    0.001313
     8   -0.882862  -27.283172   -0.008963
     9  -36.881491  -62.500489    0.010036
    10   -0.150555   -1.078191    0.000099
    11   -0.949723  -20.196050   -0.000627
    12   -0.900300   -6.074543   -0.001163
    13   -0.491450   -8.072853   -0.000162
    14   -0.408615   -1.027950    0.000890
    15    0.384332   -0.109819   -0.000831
    16    0.991070   -0.447354    0.012481
    17   -0.380973    0.243511   -0.027019
    18    0.120761    0.135237   -0.002089
    19   -0.059651   -0.179768   -0.056387
    20    0.183273    0.060504    0.010288
    21   -0.166490    0.168920    0.090232
    22   -0.039458    0.046124    0.031812
    23   -0.040698    0.124275   -0.048818
    24    2.504767    3.023022   -0.016261
    25   41.039660   90.923142    0.000247
    26    0.461184   15.046933    0.009600
    27   -1.015058    5.014122    0.000535
    28   -4.333619    3.157897   -0.004491
    29    9.036842    8.247872    0.000168
    30    0.014872    0.347572    0.005078
   Tot    5.493750   -1.806907    0.006975
   Max   90.923142
   Res   13.716975    sqrt( Sum f_i^2 / 3N )
   Max   90.923142    constrained

Stress tensor Voigt[x,y,z,yz,xz,xy] (kbar):       -9.50      -64.25       -0.23       -0.05        0.06      -13.62
(Free)E + p*V (eV/cell)    -3913.4752
Target enthalpy (eV/cell)    -3972.1601

mulliken: Atomic and Orbital Populations:

Species: H

Atom      Orb        Charge      Spin       Svec
    1  3 2Ppy       0.02879   0.00000     -0.000   0.000   0.000
    1  4 2Ppz       0.04006   0.00000     -0.000   0.000   0.000
    1  5 2Ppx       0.02527   0.00000      0.000   0.000   0.000
    1     Total     0.79675   0.00000      0.000   0.000   0.000

    4  3 2Ppy       0.03913   0.00000     -0.000   0.000   0.000
    4  4 2Ppz       0.01931   0.00000      0.000   0.000  -0.000
    4  5 2Ppx       0.01371   0.00000      0.000   0.000   0.000
    4     Total     1.19136   0.00000     -0.000   0.000   0.000

[...]

   30  3 2Ppy       0.02973   0.00000      0.000   0.000  -0.000
   30  4 2Ppz       0.03592   0.00000     -0.000  -0.000  -0.000
   30  5 2Ppx       0.02552   0.00000      0.000   0.000   0.000
   30     Total     0.78633   0.00000      0.000   0.000   0.000

Total              10.95230   0.00000     -0.000  -0.000  -0.000

[...]

Atom      Orb        Charge      Spin       Svec
    2  9 3Pdxy      0.00719   0.00000      0.000  -0.000   0.000
    2 10 3Pdyz      0.00553   0.00000      0.000   0.000  -0.000
    2 11 3Pdz2      0.00157   0.00000      0.000  -0.000  -0.000
    2 12 3Pdxz      0.00303   0.00000     -0.000  -0.000  -0.000
    2 13 3Pdx2-y2   0.00308   0.00000      0.000   0.000  -0.000
    2     Total     5.52204   0.00000      0.000  -0.000   0.000

    5  9 3Pdxy      0.00869   0.00000     -0.000  -0.000   0.000
    5 10 3Pdyz      0.00664   0.00000     -0.000  -0.000  -0.000
    5 11 3Pdz2      0.00193   0.00000     -0.000  -0.000  -0.000
    5 12 3Pdxz      0.01134   0.00000      0.000  -0.000  -0.000
    5 13 3Pdx2-y2   0.00931   0.00000     -0.000  -0.000  -0.000
    5     Total     5.37635   0.00000      0.000   0.000   0.000

[...]

Species: O

Atom      Orb        Charge      Spin       Svec
   25  9 3Pdxy      0.01046   0.00000     -0.000  -0.000   0.000
   25 10 3Pdyz      0.01254   0.00000      0.000  -0.000   0.000
   25 11 3Pdz2      0.00450   0.00000      0.000   0.000   0.000
   25 12 3Pdxz      0.00220   0.00000     -0.000   0.000   0.000
   25 13 3Pdx2-y2   0.01791   0.00000      0.000   0.000   0.000
   25     Total     6.40632   0.00000     -0.000  -0.000   0.000

   29  9 3Pdxy      0.01029   0.00000     -0.000   0.000   0.000
   29 10 3Pdyz      0.00153   0.00000      0.000   0.000  -0.000
   29 11 3Pdz2      0.00288   0.00000      0.000  -0.000   0.000
   29 12 3Pdxz      0.00745   0.00000      0.000   0.000   0.000
   29 13 3Pdx2-y2   0.01242   0.00000      0.000  -0.000   0.000
   29     Total     6.36369   0.00000      0.000  -0.000   0.000

Total              98.00000   0.00000     -0.000  -0.000   0.000

siesta: Eigenvalues (eV):
ik =     1
  -30.1535  -30.1535  -27.2411  -27.2411  -23.1406  -23.1406  -22.0490  -22.0490  -20.8182  -20.8182
  -20.1887  -20.1887  -19.3246  -19.3246  -19.1345  -19.1345  -18.7009  -18.7009  -16.9072  -16.9072
  -16.0222  -16.0222  -14.9195  -14.9195  -14.1105  -14.1105  -13.9706  -13.9706  -13.5088  -13.5088
  -13.0319  -13.0319  -12.7407  -12.7407  -12.5153  -12.5153  -12.2447  -12.2447  -11.7390  -11.7390
  -11.2234  -11.2234  -10.9507  -10.9507  -10.6374  -10.6374  -10.3264  -10.3264  -10.2783  -10.2783
  -10.1560  -10.1560  -10.0876  -10.0876   -9.5320   -9.5320   -9.3363   -9.3363   -9.1753   -9.1753
   -8.9150   -8.9150   -8.6701   -8.6701   -8.5823   -8.5823   -8.5373   -8.5373   -8.2661   -8.2661
   -8.1746   -8.1746   -7.9200   -7.9200   -7.7355   -7.7355   -7.1553   -7.1553   -7.0599   -7.0599
   -6.4718   -6.4718   -6.0892   -6.0892   -5.8038   -5.8038   -5.7662   -5.7662   -5.4093   -5.4093
   -5.3720   -5.3720   -4.5428   -4.5428   -4.2411   -4.2411   -4.0739   -4.0739   -3.5494   -3.5494
   -2.6860   -2.6860   -2.6239   -2.6239   -2.5054   -2.5054   -2.0866   -2.0866   -2.0580   -2.0580
   -1.8628   -1.8628   -1.6351   -1.6351   -1.5165   -1.5165   -1.4349   -1.4349   -1.2397   -1.2397
   -0.9786   -0.9786   -0.5299   -0.5299   -0.2480   -0.2480   -0.1167   -0.1167   -0.0780   -0.0780
   -0.0260   -0.0260    0.2753    0.2753    0.4507    0.4507    0.4570    0.4570    0.6042    0.6042
    0.9022    0.9022    1.0149    1.0149    1.2547    1.2547    1.2979    1.2979    1.4981    1.4981
    1.7651    1.7651    1.8194    1.8194    2.1217    2.1217    2.4793    2.4793    2.5937    2.5937
    2.6563    2.6563    2.8013    2.8013    2.8712    2.8712    3.0423    3.0423    3.1486    3.1486
    3.2985    3.2985    3.3226    3.3226    3.6696    3.6696    3.9283    3.9283    3.9549    3.9549
    4.1198    4.1198    4.1254    4.1254    4.6315    4.6315    4.7123    4.7123    4.8881    4.8881
    4.9069    4.9069    5.1555    5.1555    5.2513    5.2513    5.2591    5.2591    5.4609    5.4609
    5.7905    5.7905    5.8292    5.8292    5.9400    5.9400    6.2487    6.2487    6.2742    6.2742
    6.3917    6.3917    6.4930    6.4930    6.8964    6.8964    6.9586    6.9586    7.0110    7.0110
    7.2276    7.2276    7.3136    7.3136    7.5032    7.5032    7.6515    7.6515    7.7128    7.7128
    7.8667    7.8667    8.1205    8.1205    8.2366    8.2366    8.4007    8.4007    8.5611    8.5611
    8.8265    8.8265    9.1606    9.1606    9.2874    9.2874    9.4250    9.4250    9.5975    9.5975
    9.7388    9.7388    9.8228    9.8228    9.9083    9.9083   10.0248   10.0248   10.1202   10.1202
   10.5172   10.5172   10.6346   10.6346   10.9243   10.9243   11.0104   11.0104   11.0247   11.0247
   11.3020   11.3020   11.5781   11.5781   11.6271   11.6271   11.7623   11.7623   11.8980   11.8980
   11.9550   11.9550   12.1527   12.1527   12.2047   12.2047   12.4053   12.4053   12.9552   12.9552
   13.1942   13.1942   13.3758   13.3758   13.4818   13.4818   13.5341   13.5341   14.0579   14.0579
   14.2195   14.2195   14.6099   14.6099   15.0725   15.0725   15.1161   15.1161   15.3691   15.3691
   15.5892   15.5892   15.8809   15.8809   16.1561   16.1561   16.4969   16.4969   16.8427   16.8427
   16.9889   16.9889   17.1489   17.1489   17.8780   17.8780   18.0161   18.0161   18.2776   18.2776
   18.4799   18.4799   18.5339   18.5339   18.7364   18.7364   18.8634   18.8634   19.1972   19.1972
   19.5181   19.5181   20.0689   20.0689   20.3234   20.3234   20.8080   20.8080   20.9578   20.9578
   21.2540   21.2540   21.6291   21.6291   22.0246   22.0246   22.5451   22.5451   22.6620   22.6620
   23.0505   23.0505   23.0667   23.0667   23.1896   23.1896   23.7669   23.7669   24.3722   24.3722
   24.5328   24.5328   25.2028   25.2028   25.4630   25.4630   25.6353   25.6353   25.9751   25.9751
   26.2742   26.2742   26.7316   26.7316   27.8208   27.8208   28.2670   28.2670   28.4417   28.4417
   28.6627   28.6627   29.4653   29.4653   29.7532   29.7532   30.5498   30.5498   31.0216   31.0216
   31.1051   31.1051   31.4240   31.4240   31.5731   31.5731   32.0320   32.0320   32.3873   32.3873
   32.7891   32.7891   32.8450   32.8450   33.8936   33.8936   34.0858   34.0858   34.8393   34.8393
   35.3309   35.3309   35.6396   35.6396   36.5400   36.5400   36.6166   36.6166   37.4385   37.4385
   37.7701   37.7701   38.1949   38.1949   38.5290   38.5290   39.5502   39.5502   39.9534   39.9534
   40.1415   40.1415   40.8063   40.8063   41.1763   41.1763   41.2058   41.2058   41.5033   41.5033
   41.9427   41.9427   42.1778   42.1778   42.7703   42.7703   43.8656   43.8656   43.9627   43.9627
   44.0761   44.0761   44.8595   44.8595   44.9940   44.9940   45.5706   45.5706   45.7568   45.7568
   45.9815   45.9815   46.4535   46.4535   46.6535   46.6535   46.9984   46.9984   47.4096   47.4096
   48.1391   48.1391   48.3773   48.3773   48.9163   48.9163   49.0807   49.0807   49.4419   49.4419
   49.6944   49.6944   50.1714   50.1714   50.3954   50.3954   51.9022   51.9022   52.4055   52.4055
   53.0004   53.0004   53.8599   53.8599   54.3834   54.3834   54.8566   54.8566   55.3635   55.3635
   56.3262   56.3262   56.6158   56.6158   56.7993   56.7993   57.1591   57.1591   57.8101   57.8101
   58.8231   58.8231   59.7804   59.7804   60.5695   60.5695   61.5670   61.5670   62.3787   62.3787
   62.9423   62.9423   63.5200   63.5200   63.7726   63.7726   65.3425   65.3425   66.2534   66.2534
   67.7886   67.7886   68.7604   68.7604   70.2845   70.2845   70.3661   70.3661   71.2336   71.2336
   72.0670   72.0670   72.9415   72.9415   74.9714   74.9714   75.1837   75.1837   77.6900   77.6900
   80.9776   80.9776   85.8641   85.8641   89.1132   89.1132   92.7374   92.7374   93.9857   93.9857
   95.8113   95.8113   96.0871   96.0871   99.8764   99.8764  101.7487  101.7487  103.6617  103.6617
  107.3054  107.3054  116.6442  116.6442  117.8484  117.8484  120.5074  120.5074  125.4081  125.4081
  129.3473  129.3473  135.9480  135.9480  136.5864  136.5864  145.8503  145.8503  156.5578  156.5578
  167.4065  167.4065  287.0527  287.0527
siesta: Fermi energy =      -3.811651 eV

siesta: Program's energy decomposition (eV):
siesta: Ebs     =     -1165.902078
siesta: Eions   =      3553.971015
siesta: Ena     =       425.491806
siesta: Ekin    =      2845.955069
siesta: Enl     =     -2628.925778
siesta: Eso     =        -0.005044
siesta: Edftu   =         0.000000
siesta: DEna    =        38.063184
siesta: DUscf   =        14.904576
siesta: DUext   =         0.000000
siesta: Exc     =     -1113.672819
siesta: eta*DQ  =         0.000000
siesta: Emadel  =         0.000000
siesta: Emeta   =         0.000000
siesta: Emolmec =         0.000000
siesta: Ekinion =         0.000000
siesta: Eharris =     -3972.160019
siesta: Etot    =     -3972.160019
siesta: FreeEng =     -3972.160065

siesta: Final energy (eV):
siesta:  Band Struct. =   -1165.902078
siesta:       Kinetic =    2845.955069
siesta:       Hartree =    8955.340335
siesta:       Edftu   =       0.000000
siesta:       Eso     =      -0.005044
siesta:    Ext. field =       0.000000
siesta:   Exch.-corr. =   -1113.672819
siesta:  Ion-electron =  -20476.292250
siesta:       Ion-ion =    5816.514689
siesta:       Ekinion =       0.000000
siesta:         Total =   -3972.160019
siesta:         Fermi =      -3.811651

siesta: Atomic forces (eV/Ang):
siesta:      1   -0.020085    0.008582    0.000051
siesta:      2   -0.099836   -0.309009   -0.000116
siesta:      3    0.148214    0.083858   -0.000207
siesta:      4   -0.084708   -0.051085    0.000112
siesta:      5   -0.052379   -0.041414    0.000248
siesta:      6    0.176349    0.021480    0.000919
siesta:      7   -2.609623   -1.088262    0.001313
siesta:      8   -0.882862  -27.283172   -0.008963
siesta:      9  -36.881491  -62.500489    0.010036
siesta:     10   -0.150555   -1.078191    0.000099
siesta:     11   -0.949723  -20.196050   -0.000627
siesta:     12   -0.900300   -6.074543   -0.001163
siesta:     13   -0.491450   -8.072853   -0.000162
siesta:     14   -0.408615   -1.027950    0.000890
siesta:     15    0.384332   -0.109819   -0.000831
siesta:     16    0.991070   -0.447354    0.012481
siesta:     17   -0.380973    0.243511   -0.027019
siesta:     18    0.120761    0.135237   -0.002089
siesta:     19   -0.059651   -0.179768   -0.056387
siesta:     20    0.183273    0.060504    0.010288
siesta:     21   -0.166490    0.168920    0.090232
siesta:     22   -0.039458    0.046124    0.031812
siesta:     23   -0.040698    0.124275   -0.048818
siesta:     24    2.504767    3.023022   -0.016261
siesta:     25   41.039660   90.923142    0.000247
siesta:     26    0.461184   15.046933    0.009600
siesta:     27   -1.015058    5.014122    0.000535
siesta:     28   -4.333619    3.157897   -0.004491
siesta:     29    9.036842    8.247872    0.000168
siesta:     30    0.014872    0.347572    0.005078
siesta: ----------------------------------------
siesta:    Tot    5.493750   -1.806907    0.006975

siesta: Stress tensor (static) (eV/Ang**3):
siesta:    -0.005927   -0.008502    0.000039
siesta:    -0.008502   -0.040103   -0.000030
siesta:     0.000039   -0.000030   -0.000141

siesta: Cell volume =       3813.083131 Ang**3

siesta: Pressure (static):
siesta:                Solid            Molecule  Units
siesta:           0.00016762          0.00000241  Ry/Bohr**3
siesta:           0.01539039          0.00022091  eV/Ang**3
siesta:          24.65839440          0.35394518  kBar
(Free)E+ p_basis*V_orbitals  =       -3951.031979
(Free)Eharris+ p_basis*V_orbitals  =       -3951.031979
     spin moment: S , {S} =    0.00000  -0.00000  -0.00000   0.00000

siesta: Electric dipole (a.u.)  =    0.574111    2.220187   -0.014781
siesta: Electric dipole (Debye) =    1.459245    5.643158   -0.037569

cite: Please see "AT.bib" for an exhaustive BiBTeX file.
cite: Please clearly indicate Siesta version in published work: v4.1.5-1-g384057250
cite: This calculation has made use of the following articles
cite: which are encouraged to be cited in a published work.
        Primary SIESTA paper
          DOI: www.doi.org/10.1088/0953-8984/14/11/302
        Spin-orbit coupling (on-site approximation)
          DOI: www.doi.org/10.1088/0953-8984/19/19/489001

WARNING: alloc-realloc-dealloc name mismatch
         Name: atomlist isa
         Node:     0
         Subsequent mismatches will not be reported
>> End of run:  22-MAY-2023   9:34:10
Job completed