>> Start of run:  14-OCT-2023  16:53:13

reinit: Reading from standard input
reinit: Dumped input in INPUT_TMP.04874
************************** Dump of input data file ****************************
# mpirun -np 4 siesta-4.1.5 < Cytosine.fdf > Cytosine.out
SystemLabel      Cytosine
NumberOfAtoms    13
NumberOfSpecies  4
%block ChemicalSpeciesLabel
    1    1  H
    2    7  N
    3    14 Si
    4    8  O
%endblock ChemicalSpeciesLabel
# This overrides Defaults.fdf conf
MD.TypeOfRun                CG # CG, Verlet
MD.Steps                    300
AtomicCoordinatesFormat NotScaledCartesianAng
%block AtomicCoordinatesAndAtomicSpecies
    1.07734600    3.50223892    0.00000000   1       1  H
    0.31947192    2.76322186    0.00000000   2       2  N
   -1.36896550    3.24829211    0.00000000   3       3  Si
   -1.56514225    4.74213492    0.00000000   1       4  H
   -2.88975231    1.67218581    0.00000000   3       5  Si
   -4.36828301    1.88013893    0.00000000   1       6  H
   -1.68253237   -0.22232552    0.00000000   3       7  Si
   -2.45591714   -1.79122426    0.00000000   2       8  N
   -1.89470358   -2.68365996    0.00000000   1       9  H
   -3.49890006   -1.92599771    0.00000000   1      10  H
    0.00802617   -0.25713341    0.00000000   2      11  N
    1.06209498    1.09794507    0.00000000   3      12  Si
    2.63880718    1.16303814    0.00000000   4      13  O
%endblock AtomicCoordinatesAndAtomicSpecies
# Unit Cell
LatticeConstant 1.0 Ang
%block LatticeVectors
    14.828907   0.000000    0.000000
    0.000000    14.495518   0.000000
    0.000000    0.000000    9.854683
%endblock LatticeVectors
%include ../../../../Defaults.fdf
************************** End of input data file *****************************

reinit: -----------------------------------------------------------------------
reinit: System Name:
reinit: -----------------------------------------------------------------------
reinit: System Label: Cytosine
reinit: -----------------------------------------------------------------------

initatom: Reading input for the pseudopotentials and atomic orbitals ----------
Species number:   1 Atomic number:    1 Label: H
Species number:   2 Atomic number:    7 Label: N
Species number:   3 Atomic number:   14 Label: Si
Species number:   4 Atomic number:    8 Label: O

Ground state valence configuration:   1s01
Reading pseudopotential information in formatted form from H.psf

Pseudopotential generated from a relativistic atomic calculation

Valence configuration for pseudopotential generation:
1s( 1.00) rc: 0.01
2p( 0.00) rc: 0.60
3d( 0.00) rc: 1.99
4f( 0.00) rc: 2.49
Ground state valence configuration:   2s02  2p03
Reading pseudopotential information in formatted form from N.psf

[...]

Valence configuration for pseudopotential generation:
3s( 2.00) rc: 1.67
3p( 2.00) rc: 2.04
3d( 0.00) rc: 2.89
4f( 0.00) rc: 2.49
Ground state valence configuration:   2s02  2p04
Reading pseudopotential information in formatted form from O.psf

Pseudopotential generated from a relativistic atomic calculation

Valence configuration for pseudopotential generation:
2s( 2.00) rc: 0.45
2p( 4.00) rc: 0.92
3d( 0.00) rc: 2.24
4f( 0.00) rc: 0.25
For H, standard SIESTA heuristics set lmxkb to 2
 (one more than the basis l, including polarization orbitals).
Use PS.lmax or PS.KBprojectors blocks to override.
For N, standard SIESTA heuristics set lmxkb to 3
 (one more than the basis l, including polarization orbitals).
Use PS.lmax or PS.KBprojectors blocks to override.
For Si, standard SIESTA heuristics set lmxkb to 3
 (one more than the basis l, including polarization orbitals).
Use PS.lmax or PS.KBprojectors blocks to override.
For O, standard SIESTA heuristics set lmxkb to 3
 (one more than the basis l, including polarization orbitals).
Use PS.lmax or PS.KBprojectors blocks to override.

<basis_specs>
H                    Z=   1    Mass=  1.0100        Charge= 0.17977+309
Lmxo=0 Lmxkb= 2    BasisType=split      Semic=F
L=0  Nsemic=0  Cnfigmx=1
          i=1  nzeta=2  polorb=1  (1s)
            splnorm:   0.62000
               vcte:    0.0000
               rinn:    0.0000
               qcoe:    0.0000
               qyuk:    0.0000
               qwid:   0.10000E-01
                rcs:    0.0000      0.0000
            lambdas:    1.0000      1.0000
L=0  Nkbl=1  erefs: 0.17977+309
L=1  Nkbl=1  erefs: 0.17977+309
L=2  Nkbl=1  erefs: 0.17977+309
</basis_specs>

atom: Called for H                     (Z =   1)

read_vps: Pseudopotential generation method:
read_vps: ATM4.2.7  Troullier-Martins
Valence charge for ps generation:    1.00000

xc_check: Exchange-correlation functional:
xc_check: GGA Perdew, Burke & Ernzerhof 1996
V l=0 = -2*Zval/r beyond r=  0.0098
V l=1 = -2*Zval/r beyond r=  0.5817
V l=2 = -2*Zval/r beyond r=  1.9372
All V_l potentials equal beyond r=  1.9372
This should be close to max(r_c) in ps generation
All pots = -2*Zval/r beyond r=  1.9372

VLOCAL1: 99.0% of the norm of Vloc inside     11.567 Ry
VLOCAL1: 99.9% of the norm of Vloc inside     26.362 Ry
atom: Maximum radius for 4*pi*r*r*local-pseudopot. charge    2.25106
atom: Maximum radius for r*vlocal+2*Zval:    1.91306
GHOST: No ghost state for L =  0
GHOST: No ghost state for L =  1
GHOST: No ghost state for L =  2

KBgen: Kleinman-Bylander projectors:
   l= 0   rc=  2.036604   el= -0.477180   Ekb= -6.081590   kbcos= -0.277285
   l= 1   rc=  2.195416   el=  0.001076   Ekb= -0.926943   kbcos= -0.034643
   l= 2   rc=  2.251056   el=  0.002010   Ekb= -0.130941   kbcos= -0.009788

KBgen: Total number of Kleinman-Bylander projectors:    9
atom: -------------------------------------------------------------------------

atom: SANKEY-TYPE ORBITALS:
atom: Selected multiple-zeta basis: split

SPLIT: Orbitals with angular momentum L= 0

SPLIT: Basis orbitals for state 1s

SPLIT: PAO cut-off radius determined from an
SPLIT: energy shift=  0.002000 Ry

   izeta = 1
                 lambda =    1.000000
                     rc =    6.518340
                 energy =   -0.475305
                kinetic =    0.912139
    potential(screened) =   -1.387444
       potential(ionic) =   -1.907295

   izeta = 2
                 rmatch =    2.141150
              splitnorm =    0.620000
                 energy =    0.566467
                kinetic =    3.772856
    potential(screened) =   -3.206389
       potential(ionic) =   -3.759093

POLgen: Perturbative polarization orbital with L=  1

POLgen: Polarization orbital for state 1s

   izeta = 1
                     rc =    6.518340
                 energy =    0.533861
                kinetic =    1.121086
    potential(screened) =   -0.587225
       potential(ionic) =   -1.053027
atom: Total number of Sankey-type orbitals:  5

atm_pop: Valence configuration (for local Pseudopot. screening):
 1s( 1.00)
Vna: chval, zval:    1.00000   1.00000

Vna:  Cut-off radius for the neutral-atom potential:   6.518340

atom: _________________________________________________________________________

<basis_specs>
N                    Z=   7    Mass=  14.010        Charge= 0.17977+309
Lmxo=1 Lmxkb= 3    BasisType=split      Semic=F
L=0  Nsemic=0  Cnfigmx=2
          i=1  nzeta=2  polorb=0  (2s)
            splnorm:   0.28000
               vcte:    0.0000
               rinn:    0.0000
               qcoe:    0.0000
               qyuk:    0.0000
               qwid:   0.10000E-01
                rcs:    0.0000      0.0000
            lambdas:    1.0000      1.0000
L=1  Nsemic=0  Cnfigmx=2
          i=1  nzeta=2  polorb=1  (2p)
            splnorm:   0.28000
               vcte:    0.0000
               rinn:    0.0000
               qcoe:    0.0000
               qyuk:    0.0000
               qwid:   0.10000E-01
                rcs:    0.0000      0.0000
            lambdas:    1.0000      1.0000
L=0  Nkbl=1  erefs: 0.17977+309
L=1  Nkbl=1  erefs: 0.17977+309
L=2  Nkbl=1  erefs: 0.17977+309
L=3  Nkbl=1  erefs: 0.17977+309
</basis_specs>

[...]

KBgen: Kleinman-Bylander projectors:
   l= 0   rc=  3.417763   el= -1.365098   Ekb= -4.433130   kbcos= -0.707855
   l= 1   rc=  3.375302   el= -0.521201   Ekb=-13.264039   kbcos= -0.535594
   l= 2   rc=  3.872880   el=  0.001991   Ekb= -0.641094   kbcos= -0.062456
   l= 3   rc=  3.970931   el=  0.003093   Ekb= -0.474517   kbcos= -0.018236

[...]

SPLIT: Basis orbitals for state 2p

[...]

POLgen: Polarization orbital for state 2p

[...]

atm_pop: Valence configuration (for local Pseudopot. screening):
 2s( 2.00)
 2p( 3.00)
Vna: chval, zval:    5.00000   5.00000

[...]

KBgen: Kleinman-Bylander projectors:
   l= 0   rc=  3.075247   el= -0.794092   Ekb=  5.879390   kbcos=  0.167461
   l= 1   rc=  3.153101   el= -0.300068   Ekb=  2.642817   kbcos=  0.058301
   l= 2   rc=  3.273594   el=  0.001958   Ekb= -1.185135   kbcos= -0.104411
   l= 3   rc=  3.232927   el=  0.003046   Ekb= -0.497174   kbcos= -0.015889

[...]

<basis_specs>
O                    Z=   8    Mass=  16.000        Charge= 0.17977+309
Lmxo=1 Lmxkb= 3    BasisType=split      Semic=F
L=0  Nsemic=0  Cnfigmx=2
          i=1  nzeta=2  polorb=0  (2s)
            splnorm:   0.28000
               vcte:    0.0000
               rinn:    0.0000
               qcoe:    0.0000
               qyuk:    0.0000
               qwid:   0.10000E-01
                rcs:    0.0000      0.0000
            lambdas:    1.0000      1.0000
L=1  Nsemic=0  Cnfigmx=2
          i=1  nzeta=2  polorb=1  (2p)
            splnorm:   0.28000
               vcte:    0.0000
               rinn:    0.0000
               qcoe:    0.0000
               qyuk:    0.0000
               qwid:   0.10000E-01
                rcs:    0.0000      0.0000
            lambdas:    1.0000      1.0000
L=0  Nkbl=1  erefs: 0.17977+309
L=1  Nkbl=1  erefs: 0.17977+309
L=2  Nkbl=1  erefs: 0.17977+309
L=3  Nkbl=1  erefs: 0.17977+309
</basis_specs>

atom: Called for O                     (Z =   8)

read_vps: Pseudopotential generation method:
read_vps: ATM4.2.7  Troullier-Martins
Valence charge for ps generation:    6.00000

xc_check: Exchange-correlation functional:
xc_check: GGA Perdew, Burke & Ernzerhof 1996
V l=0 = -2*Zval/r beyond r=  1.1000
V l=1 = -2*Zval/r beyond r=  1.1000
V l=2 = -2*Zval/r beyond r=  2.2154
V l=3 = -2*Zval/r beyond r=  1.1000
All V_l potentials equal beyond r=  2.2154
This should be close to max(r_c) in ps generation
All pots = -2*Zval/r beyond r=  2.2154

VLOCAL1: 99.0% of the norm of Vloc inside      8.845 Ry
VLOCAL1: 99.9% of the norm of Vloc inside     20.157 Ry
atom: Maximum radius for 4*pi*r*r*local-pseudopot. charge    2.67231
atom: Maximum radius for r*vlocal+2*Zval:    2.32897
GHOST: No ghost state for L =  0
GHOST: No ghost state for L =  1
GHOST: No ghost state for L =  2
GHOST: No ghost state for L =  3

KBgen: Kleinman-Bylander projectors:
   l= 0   rc=  2.243238   el= -1.759686   Ekb=**********   kbcos= -0.171774
   l= 1   rc=  2.328968   el= -0.663873   Ekb=-14.506792   kbcos= -0.519897
   l= 2   rc=  2.573941   el=  0.002031   Ekb= -1.137373   kbcos= -0.019581
   l= 3   rc=  2.606321   el=  0.003153   Ekb= -1.013546   kbcos= -0.003122

KBgen: Total number of Kleinman-Bylander projectors:   16
[...]
   scf:    6    -1750.396465    -1750.396465    -1750.396465  0.000001 -4.426475  0.000015
     spin moment: S , {S} =    0.00000   0.00000  -0.00000  -0.00000
   scf:    7    -1750.396465    -1750.396465    -1750.396465  0.000001 -4.426477  0.000005
     spin moment: S , {S} =    0.00000   0.00000  -0.00000  -0.00000
   scf:    8    -1750.396465    -1750.396465    -1750.396465  0.000000 -4.426477  0.000002
     spin moment: S , {S} =    0.00000   0.00000  -0.00000  -0.00000
   scf:    9    -1750.396465    -1750.396465    -1750.396465  0.000000 -4.426477  0.000001
     spin moment: S , {S} =    0.00000   0.00000  -0.00000  -0.00000

[...]

cgvc: Finished line minimization   54.  Mean atomic displacement =    0.0002

                        Begin CG opt. move =    131

outcoor: Atomic coordinates (Ang):
    0.99446407    3.49874632    0.00000002   1       1  H
    0.25990692    2.73738523   -0.00000008   2       2  N
   -1.43750707    3.23076129   -0.00000139   3       3  Si
   -1.56659198    4.73960210   -0.00000000   1       4  H
   -2.96939626    1.65863702    0.00000562   3       5  Si
   -4.44968551    1.87970321   -0.00000006   1       6  H
   -1.74033533   -0.22942544   -0.00000046   3       7  Si
   -2.49605866   -1.81159486   -0.00000001   2       8  N
   -1.89727100   -2.68272681   -0.00000000   1       9  H
   -3.53931086   -1.96886349   -0.00000001   1      10  H
   -0.04887461   -0.24279353   -0.00000016   2      11  N
    1.04567892    1.08882330   -0.00000010   3      12  Si
    2.63459195    1.16277696   -0.00000273   4      13  O

outcell: Unit cell vectors (Ang):
       14.828907    0.000000    0.000000
        0.000000   14.495518    0.000000
        0.000000    0.000000    9.854683

outcell: Cell vector modules (Ang)   :   14.828907   14.495518    9.854683
outcell: Cell angles (23,13,12) (deg):     90.0000     90.0000     90.0000
outcell: Cell volume (Ang**3)        :   2118.2906
<dSpData1D:S at geom step 131
  <sparsity:sparsity for geom step 131
    nrows_g=129 nrows=5 sparsity=.0379 nnzs=631, refcount: 8>
  <dData1D:(new from dSpData1D) n=631, refcount: 1>
refcount: 1>
new_DM -- step:   132
Re-using DM from previous geometries...
Number of DMs in history: 1
 DM extrapolation coefficients:
1   1.00000
New DM after history re-use:
<dSpData2D:SpM extrapolated using coords
  <sparsity:sparsity for geom step 131
    nrows_g=129 nrows=5 sparsity=.0379 nnzs=631, refcount: 10>
  <dData2D:(temp array for extrapolation) n=631 m=8, refcount: 1>
refcount: 1>
     spin moment: S , {S} =    0.00000   0.00000  -0.00000  -0.00000
No. of atoms with KB's overlaping orbs in proc 0. Max # of overlaps:       9     125
New grid distribution:   1
           1       1:   90    1:   21    1:    8
           2       1:   90    1:   21    9:   16
           3       1:   90    1:   21   17:   24
           4       1:   90    1:   21   25:   32
           5       1:   90    1:   21   33:   39
           6       1:   90    1:   21   40:   46
           7       1:   90    1:   21   47:   53
           8       1:   90    1:   21   54:   60
           9       1:   90   22:   41    1:    8
          10       1:   90   22:   41    9:   16
          11       1:   90   22:   41   17:   24
          12       1:   90   22:   41   25:   32
          13       1:   90   22:   41   33:   39
          14       1:   90   22:   41   40:   46
          15       1:   90   22:   41   47:   53
          16       1:   90   22:   41   54:   60
          17       1:   90   42:   61    1:    8
          18       1:   90   42:   61    9:   16
          19       1:   90   42:   61   17:   24
          20       1:   90   42:   61   25:   32
          21       1:   90   42:   61   33:   39
          22       1:   90   42:   61   40:   46
          23       1:   90   42:   61   47:   53
          24       1:   90   42:   61   54:   60
          25       1:   90   62:   81    1:    8
          26       1:   90   62:   81    9:   16
          27       1:   90   62:   81   17:   24
          28       1:   90   62:   81   25:   32
          29       1:   90   62:   81   33:   39
          30       1:   90   62:   81   40:   46
          31       1:   90   62:   81   47:   53
          32       1:   90   62:   81   54:   60

InitMesh: MESH =   180 x   162 x   120 =     3499200
InitMesh: (bp) =    90 x    81 x    60 =      437400
InitMesh: Mesh cutoff (required, used) =   340.000   345.195 Ry
ExtMesh (bp) on 0 =   202 x   125 x   120 =     3030000
New grid distribution:   2
           1      12:   72    9:   16    1:   20
           2      73:   82    9:   18    1:   23
           3       1:   11    9:   16   21:   60
           4      12:   72    1:    8   21:   60
           5      12:   72    9:   16   21:   60
           6      12:   72    1:    8    1:   20
           7      73:   82    9:   18   24:   60
           8      73:   81   71:   81    1:   20
           9      73:   81   19:   70    1:   20
          10       1:   11    1:    8   21:   60
          11      73:   82    1:    8    1:   23
          12      16:   72   17:   67   21:   60
          13      73:   81   19:   70   21:   60
          14      82:   90   19:   69    1:   20
          15      73:   82    1:    8   24:   60
          16       1:   11    9:   16    1:   20
          17      16:   72   17:   68    1:   20
          18       1:   15   32:   81    1:   20
          19      83:   90   10:   18   24:   60
          20       1:   11    1:    8    1:   20
          21       1:   15   32:   81   21:   60
          22       1:   15   17:   31   21:   60
          23      83:   90    1:    9   24:   60
          24      83:   90   10:   18    1:   23
          25      16:   72   69:   81    1:   20
          26      82:   90   70:   81    1:   20
          27      73:   81   71:   81   21:   60
          28      16:   72   68:   81   21:   60
          29      82:   90   19:   69   21:   60
          30       1:   15   17:   31    1:   20
          31      82:   90   70:   81   21:   60
          32      83:   90    1:    9    1:   23
New grid distribution:   3
           1      22:   62   11:   22    1:   26
           2      77:   90    1:   16   28:   60
           3      78:   90   63:   81    1:   25
           4      21:   62    1:   10   27:   60
           5      21:   62   11:   22   27:   60
           6      22:   62    1:   10    1:   26
           7       1:   20   11:   22   27:   60
           8      77:   90   17:   32    1:   27
           9      16:   62   23:   69    1:   23
          10      63:   77   33:   64    1:   25
          11      63:   76   16:   32    1:   27
          12      77:   90   17:   32   28:   60
          13      63:   77   33:   65   26:   60
          14      78:   90   33:   62    1:   25
          15      63:   76   16:   32   28:   60
          16      77:   90    1:   16    1:   27
          17       1:   15   23:   62    1:   23
          18      63:   76    1:   15   28:   60
          19       1:   21   12:   22    1:   26
          20      16:   62   23:   69   24:   60
          21       1:   15   23:   64   24:   60
          22      63:   77   66:   81   26:   60
          23       1:   20    1:   10   27:   60
          24       1:   21    1:   11    1:   26
          25      16:   62   70:   81    1:   23
          26       1:   15   63:   81    1:   23
          27      63:   77   65:   81    1:   25
          28      16:   62   70:   81   24:   60
          29      78:   90   33:   63   26:   60
          30       1:   15   65:   81   24:   60
          31      78:   90   64:   81   26:   60
          32      63:   76    1:   15    1:   27
Setting up quadratic distribution...
ExtMesh (bp) on 0 =   173 x   112 x   132 =     2557632
PhiOnMesh: Number of (b)points on node 0 =                 9760
PhiOnMesh: nlist on node 0 =               170159

        iscf     Eharris(eV)        E_KS(eV)     FreeEng(eV)     dDmax    Ef(eV) dHmax(eV)
   scf:    1    -1750.396316    -1750.396468    -1750.396468  0.000071 -4.425954  0.000948
     spin moment: S , {S} =    0.00000   0.00000  -0.00000  -0.00000
   scf:    2    -1750.396467    -1750.396468    -1750.396468  0.000037 -4.425313  0.002378
     spin moment: S , {S} =    0.00000   0.00000  -0.00000  -0.00000
   scf:    3    -1750.396468    -1750.396468    -1750.396468  0.000029 -4.425726  0.000150
     spin moment: S , {S} =    0.00000   0.00000  -0.00000  -0.00000
   scf:    4    -1750.396468    -1750.396468    -1750.396468  0.000002 -4.425700  0.000050
     spin moment: S , {S} =    0.00000   0.00000  -0.00000  -0.00000
   scf:    5    -1750.396468    -1750.396468    -1750.396468  0.000001 -4.425692  0.000009
     spin moment: S , {S} =    0.00000   0.00000  -0.00000  -0.00000
   scf:    6    -1750.396468    -1750.396468    -1750.396468  0.000000 -4.425692  0.000004
     spin moment: S , {S} =    0.00000   0.00000  -0.00000  -0.00000
   scf:    7    -1750.396468    -1750.396468    -1750.396468  0.000000 -4.425692  0.000002
     spin moment: S , {S} =    0.00000   0.00000  -0.00000  -0.00000
   scf:    8    -1750.396468    -1750.396468    -1750.396468  0.000000 -4.425691  0.000001
     spin moment: S , {S} =    0.00000   0.00000  -0.00000  -0.00000

SCF Convergence by DM+H criterion
max |DM_out - DM_in|         :     0.0000000975
max |H_out - H_in|      (eV) :     0.0000006734
SCF cycle converged after 8 iterations

Using DM_out to compute the final energy and forces
No. of atoms with KB's overlaping orbs in proc 0. Max # of overlaps:       9     125

siesta: E_KS(eV) =            -1750.3965
     spin moment: S , {S} =    0.00000   0.00000  -0.00000  -0.00000

siesta: Atomic forces (eV/Ang):
     1    0.000102    0.000353   -0.000000
     2   -0.000591   -0.001600    0.000002
     3   -0.003541    0.000016   -0.000002
     4    0.001206    0.000818   -0.000000
     5   -0.000719   -0.001019    0.000008
     6   -0.000871   -0.000995   -0.000000
     7    0.000893   -0.000811   -0.000000
     8   -0.001349   -0.001673    0.000000
     9    0.000067   -0.000340   -0.000000
    10   -0.002288   -0.000929   -0.000000
    11   -0.000272   -0.000999    0.000001
    12   -0.002053    0.001002   -0.000008
    13    0.003336    0.001078    0.000371
   Tot   -0.006080   -0.005098    0.000371
   Max    0.003541
   Res    0.001155    sqrt( Sum f_i^2 / 3N )
   Max    0.003541    constrained

Stress tensor Voigt[x,y,z,yz,xz,xy] (kbar):       -0.21        0.17       -0.15        0.00       -0.00        0.12
(Free)E + p*V (eV/cell)    -1750.3079
Target enthalpy (eV/cell)    -1750.3965

outcoor: Relaxed atomic coordinates (Ang):
    0.99446407    3.49874632    0.00000002   1       1  H
    0.25990692    2.73738523   -0.00000008   2       2  N
   -1.43750707    3.23076129   -0.00000139   3       3  Si
   -1.56659198    4.73960210   -0.00000000   1       4  H
   -2.96939626    1.65863702    0.00000562   3       5  Si
   -4.44968551    1.87970321   -0.00000006   1       6  H
   -1.74033533   -0.22942544   -0.00000046   3       7  Si
   -2.49605866   -1.81159486   -0.00000001   2       8  N
   -1.89727100   -2.68272681   -0.00000000   1       9  H
   -3.53931086   -1.96886349   -0.00000001   1      10  H
   -0.04887461   -0.24279353   -0.00000016   2      11  N
    1.04567892    1.08882330   -0.00000010   3      12  Si
    2.63459195    1.16277696   -0.00000273   4      13  O

siesta: Eigenvalues (eV):
ik =     1
  -21.9486  -21.9486  -21.5388  -21.5388  -21.0229  -21.0229  -19.4607  -19.4607  -14.6926  -14.6926
  -13.2679  -13.2679  -12.8416  -12.8416  -12.4104  -12.4104  -11.8814  -11.8814  -10.7674  -10.7674
  -10.0475  -10.0475   -9.5091   -9.5091   -8.6248   -8.6248   -8.3618   -8.3618   -7.7069   -7.7069
   -7.6725   -7.6725   -6.7563   -6.7563   -6.5051   -6.5051   -6.1560   -6.1560   -5.8629   -5.8629
   -5.4155   -5.4155   -3.1878   -3.1878   -2.2366   -2.2366   -1.8411   -1.8411   -1.7696   -1.7696
   -1.5350   -1.5350   -0.9968   -0.9968   -0.1769   -0.1769    0.2255    0.2255    0.7511    0.7511
    1.1680    1.1680    1.4539    1.4539    1.4757    1.4757    1.8974    1.8974    2.1508    2.1508
    2.9287    2.9287    3.1010    3.1010    3.3936    3.3936    4.1516    4.1516    4.3571    4.3571
    4.5345    4.5345    4.6534    4.6534    4.8631    4.8631    5.6294    5.6294    5.8138    5.8138
    5.9611    5.9611    6.2564    6.2564    6.6132    6.6132    6.8513    6.8513    7.1094    7.1094
    7.7750    7.7750    8.0405    8.0405    8.1051    8.1051    8.3009    8.3009    8.9931    8.9931
    9.2298    9.2298    9.7751    9.7751    9.7891    9.7891   10.1701   10.1701   10.8742   10.8742
   11.0485   11.0485   11.7644   11.7644   11.9059   11.9059   12.7838   12.7838   12.8045   12.8045
   13.5448   13.5448   13.9582   13.9582   14.3026   14.3026   14.9331   14.9331   15.3855   15.3855
   16.7094   16.7094   17.1915   17.1915   17.9073   17.9073   19.3344   19.3344   20.3192   20.3192
   21.0654   21.0654   21.1977   21.1977   22.0628   22.0628   23.0463   23.0463   23.8944   23.8944
   24.6739   24.6739   26.3187   26.3187   28.8968   28.8968   29.2370   29.2370   30.0841   30.0841
   31.0254   31.0254   31.1300   31.1300   31.3596   31.3596   31.7069   31.7069   32.6281   32.6281
   34.5287   34.5287   34.9722   34.9722   35.1563   35.1563   35.9289   35.9289   37.1432   37.1432
   37.8671   37.8671   38.9675   38.9675   40.0639   40.0639   40.8201   40.8201   41.1223   41.1223
   42.2411   42.2411   43.2127   43.2127   43.9547   43.9547   44.1590   44.1590   44.8395   44.8395
   46.4382   46.4382   49.3257   49.3257   51.0841   51.0841   51.3942   51.3942   51.6883   51.6883
   52.7146   52.7146   54.8484   54.8484   54.9130   54.9130   55.4749   55.4749   55.9360   55.9360
   56.5129   56.5129   58.9412   58.9412   60.2592   60.2592   61.2247   61.2247   61.8605   61.8605
   66.2918   66.2918   68.9451   68.9451   80.0580   80.0580   90.8276   90.8276   99.1841   99.1841
   99.7959   99.7959  110.8111  110.8111  126.5026  126.5026  139.2319  139.2319
siesta: Fermi energy =      -4.425691 eV

siesta: Program's energy decomposition (eV):
siesta: Ebs     =      -484.901138
siesta: Eions   =      1544.210757
siesta: Ena     =       161.284221
siesta: Ekin    =      1227.637341
siesta: Enl     =     -1142.539908
siesta: Eso     =        -0.001873
siesta: Edftu   =         0.000000
siesta: DEna    =        16.786210
siesta: DUscf   =         6.317486
siesta: DUext   =         0.000000
siesta: Exc     =      -475.669189
siesta: eta*DQ  =         0.000000
siesta: Emadel  =         0.000000
siesta: Emeta   =         0.000000
siesta: Emolmec =         0.000000
siesta: Ekinion =         0.000000
siesta: Eharris =     -1750.396468
siesta: Etot    =     -1750.396468
siesta: FreeEng =     -1750.396468

siesta: Final energy (eV):
siesta:  Band Struct. =    -484.901138
siesta:       Kinetic =    1227.637341
siesta:       Hartree =    2657.107928
siesta:       Edftu   =       0.000000
siesta:       Eso     =      -0.001873
siesta:    Ext. field =       0.000000
siesta:   Exch.-corr. =    -475.669189
siesta:  Ion-electron =   -6409.442128
siesta:       Ion-ion =    1249.971452
siesta:       Ekinion =       0.000000
siesta:         Total =   -1750.396468
siesta:         Fermi =      -4.425691

siesta: Stress tensor (static) (eV/Ang**3):
siesta:    -0.000133    0.000073   -0.000000
siesta:     0.000073    0.000103    0.000000
siesta:    -0.000000    0.000000   -0.000096

siesta: Cell volume =       2118.290604 Ang**3

siesta: Pressure (static):
siesta:                Solid            Molecule  Units
siesta:           0.00000046          0.00000040  Ry/Bohr**3
siesta:           0.00004180          0.00003718  eV/Ang**3
siesta:           0.06697545          0.05956949  kBar
(Free)E+ p_basis*V_orbitals  =       -1741.535726
(Free)Eharris+ p_basis*V_orbitals  =       -1741.535726
     spin moment: S , {S} =    0.00000   0.00000  -0.00000  -0.00000

siesta: Electric dipole (a.u.)  =   -3.086431    0.290651    0.000002
siesta: Electric dipole (Debye) =   -7.844929    0.738761    0.000004

cite: Please see "Cytosine.bib" for an exhaustive BiBTeX file.
cite: Please clearly indicate Siesta version in published work: v4.1.5-1-g384057250
cite: This calculation has made use of the following articles
cite: which are encouraged to be cited in a published work.
        Primary SIESTA paper
          DOI: www.doi.org/10.1088/0953-8984/14/11/302
        Spin-orbit coupling (on-site approximation)
          DOI: www.doi.org/10.1088/0953-8984/19/19/489001

WARNING: alloc-realloc-dealloc name mismatch
         Name: atomlist isa
         Node:     0
         Subsequent mismatches will not be reported
>> End of run:  14-OCT-2023  17:15:01
Job completed