 NOTE: Siesta V5 introduces some new defaults for basis-set generation
 NOTE: which might lead to slightly different numerical results.
 NOTE: Please see the manual for full details and compatibility measures.

reinit: Reading from standard input
reinit: Dumping input in INPUT_TMP.21310
************************** Dump of input data file ****************************
# mpirun -np 8 siesta-5 < Cytosine.fdf > Cytosine.out
SystemLabel      Cytosine
NumberOfAtoms    13
NumberOfSpecies  4
%block ChemicalSpeciesLabel
    1    1  H ../../../Pseudos/PBE/H/H.psf
    2    7  N ../../../Pseudos/PBE/N/N.psf
    3    14 Si ../../../Pseudos/PBE/Si/Si.psf
    4    8  O ../../../Pseudos/PBE/O/O.psf
%endblock ChemicalSpeciesLabel
# This overrides Defaults.fdf conf
MD.Steps                    1000
%block Geometry.Constraints
    atom all 0.0 0.0 1.0 # constrain along z Cartesian vector
    atom [5]
%endblock
AtomicCoordinatesFormat NotScaledCartesianAng
%block AtomicCoordinatesAndAtomicSpecies
    0.99446407    3.49874632    0.00000000   1       1  H
    0.25990692    2.73738523    0.00000000   2       2  N
   -1.43750707    3.23076129    0.00000000   3       3  Si
   -1.56659198    4.73960210    0.00000000   1       4  H
   -2.96939626    1.65863702    0.00000000   3       5  Si
   -4.44968551    1.87970321    0.00000000   1       6  H
   -1.74033533   -0.22942544    0.00000000   3       7  Si
   -2.49605866   -1.81159486    0.00000000   2       8  N
   -1.89727100   -2.68272681    0.00000000   1       9  H
   -3.53931086   -1.96886349    0.00000000   1      10  H
   -0.04887461   -0.24279353    0.00000000   2      11  N
    1.04567892    1.08882330    0.00000000   3      12  Si
    2.63459195    1.16277696    0.00000000   4      13  O
%endblock AtomicCoordinatesAndAtomicSpecies
%include ../../../Defaults.fdf
************************** End of input data file *****************************

reinit: -----------------------------------------------------------------------
reinit: System Name:
reinit: -----------------------------------------------------------------------
reinit: System Label: Cytosine
reinit: -----------------------------------------------------------------------

NOTE on units for spin output:
{S} is the spin magnetic moment, in units of the Bohr magneton,
assuming a g-factor for the electron spin of exactly 2.
The spin magnetic moment is then numerically equal to the charge inbalance,
in units of electrons, between the spin-up and -down channels.

initatom: Reading input for the pseudopotentials and atomic orbitals ----------
Species number:   1 Atomic number:    1 Label: H
Species number:   2 Atomic number:    7 Label: N
Species number:   3 Atomic number:   14 Label: Si
Species number:   4 Atomic number:    8 Label: O

Ground state valence configuration (from tables):   1s01  2p00  3d00  4f00
Ground state valence configuration (from tables):   2s02  2p03  3d00  4f00
Ground state valence configuration (from tables):   3s02  3p02  3d00  4f00
Ground state valence configuration (from tables):   2s02  2p04  3d00  4f00

---- Processing specs for species: H
Reading pseudopotential information in formatted form from:
  ../../../Pseudos/PBE/H/H.psf

[...]

---- Processing specs for species: O
Reading pseudopotential information in formatted form from:
  ../../../Pseudos/PBE/O/O.psf

---- Pseudopotential check for H

Pseudopotential generated from a fully relativistic atomic calculation
There are spin-orbit semi-local pseudopotentials available

Pseudized shells:
1s( 1.00) rc: 0.05
Valence configuration for ps generation: (assumed as above)

[...]

Pseudized shells:
2s( 2.00) rc: 1.02
2p( 3.00) rc: 1.36
3d( 0.00) rc: 3.29
Valence configuration for ps generation: (assumed as above)

[...]

Pseudized shells:
3s( 2.00) rc: 1.67
3p( 2.00) rc: 2.22
3d( 0.00) rc: 3.44
Valence configuration for ps generation: (assumed as above)

---- Pseudopotential check for O

Pseudopotential generated from a fully relativistic atomic calculation
There are spin-orbit semi-local pseudopotentials available

Pseudized shells:
2s( 2.00) rc: 1.05
2p( 4.00) rc: 1.02
Valence configuration for ps generation: (assumed as above)
For H, standard SIESTA heuristics set lmxkb to 2
 (one more than the basis l, including polarization orbitals).
Use PS.lmax or PS.KBprojectors blocks to override.
For N, standard SIESTA heuristics set lmxkb to 3
 (one more than the basis l, including polarization orbitals).
Use PS.lmax or PS.KBprojectors blocks to override.
For Si, standard SIESTA heuristics set lmxkb to 3
 (one more than the basis l, including polarization orbitals).
Use PS.lmax or PS.KBprojectors blocks to override.
For O, standard SIESTA heuristics set lmxkb to 3
 (one more than the basis l, including polarization orbitals).
Use PS.lmax or PS.KBprojectors blocks to override.
../../../Pseudos/PBE/H/H.psf pseudopotential only contains V_ls up to l=0 -- lmxkb reset.
../../../Pseudos/PBE/N/N.psf pseudopotential only contains V_ls up to l=2 -- lmxkb reset.
../../../Pseudos/PBE/Si/Si.psf pseudopotential only contains V_ls up to l=2 -- lmxkb reset.
../../../Pseudos/PBE/O/O.psf pseudopotential only contains V_ls up to l=1 -- lmxkb reset.

<basis_specs>
H                    Z=   1    Mass=  1.0080        Charge= 0.17977+309
Lmxo=1 Lmxkb= 0    BasisType=split      Semic=F
L=0  Nsemic=0  Cnfigmx=1
          i=1  nzeta=2  polorb=1  (1s)  (to be polarized perturbatively)
            splnorm:   0.62000
               vcte:    40.000
               rinn:  -0.90000
               qcoe:    0.0000
               qyuk:    0.0000
               qwid:   0.10000E-01
                rcs:    0.0000      0.0000
            lambdas:    1.0000      1.0000
L=1  Nsemic=0  Cnfigmx=2
          i=1  nzeta=0  polorb=0  (2p)  (perturbative polarization orbital) (from 1s)
</basis_specs>

Filter: Requested cutoff:  290.000000 Ry
Using PAO.SplitTailNorm
atom: Called for H                     (Z =   1)
NOTE: H pseudopotential has channels up to l= 0
NOTE: PAOs with higher l will be generated with V_local
Maximum radius (at nrval) set to   50.00000 8518

read_vps: Pseudopotential generation method:
read_vps: ATM4.2.7  Troullier-Martins
Valence charge in pseudo generation:    1.00000

xc_check: Exchange-correlation functional:
xc_check: GGA Perdew, Burke & Ernzerhof 1996
V l=0 = -2*Zval/r beyond r=  0.0513
All V_l potentials equal beyond r=  0.0513
This should be close to max(r_c) in ps generation
All pots = -2*Zval/r beyond r=  0.0513
Using small-core scheme (local charge) for Vlocal

VLOCAL_FROM_CHLOCAL: 99.0% of the norm of Vloc inside  16462.511 Ry
VLOCAL_FROM_CHLOCAL: 99.9% of the norm of Vloc inside  37518.368 Ry
atom: Maximum radius for chlocal:    0.06330
atom: Maximum radius for r*vlocal+2*Zval:    0.05437

KBgen: Kleinman-Bylander projectors:
GHOST: No ghost state for L =  0
KBproj: WARNING: Rc(0)=      0.3107
KBproj: WARNING: Cut off radius for the KB projector too small
   l= 0   rc=  0.310725   el= -0.477181   Ekb=-33.944693   kbcos= -0.005118

KBgen: Total number of Kleinman-Bylander projectors:   1
atom: -------------------------------------------------------------------------

atom: SANKEY-TYPE ORBITALS:
atom: Selected multiple-zeta basis: split

SPLIT: Orbitals with angular momentum L= 0

SPLIT: Basis orbitals for state 1s

SPLIT: PAO cut-off radius determined from an
SPLIT: energy shift=  0.005000 Ry
Split based on tail norm

   izeta = 1
                 lambda =    1.000000
                     rc =    5.772464
                 energy =   -0.471502
                kinetic =    0.941609
    potential(screened) =   -1.413111
       potential(ionic) =   -1.936120
PAO Filter: Cutoff used:  142.10 Ry
PAO Filter: diagnostic kin energy tol:    0.003000 Ry
PAO Filter: Nominal cutoff (before filtering):  107.24 Ry
Filter:    Number of eigenfunctions  of the
           filtering kernel (total, used)= 55 20

   izeta = 2
                 rmatch =    1.661681
              splitnorm =    0.620000
                 energy =    1.741023
                kinetic =    5.838304
    potential(screened) =   -4.097281
       potential(ionic) =   -4.634491
PAO Filter: Cutoff used:  142.10 Ry
PAO Filter: diagnostic kin energy tol:    0.003000 Ry
PAO Filter: Nominal cutoff (before filtering):  829.47 Ry
Filter:    Number of eigenfunctions  of the
           filtering kernel (total, used)= 23  5
*Note: V_local used for l= 1

** Using vlocal for PAOs with L= 1

POLgen: Perturbative polarization orbital with L=  1

POLgen: Polarization orbital for state 1s
*Note: V_local used for lpol= 1

** Using vlocal for PAOs with L= 1
Split based on tail norm

   izeta = 1
                     rc =    5.772464
                 energy =    0.606793
                kinetic =    1.227790
    potential(screened) =   -0.620997
       potential(ionic) =   -1.099517
PAO Filter: diagnostic kin energy tol:    0.003000 Ry
PAO Filter: Nominal cutoff (before filtering):   49.50 Ry
Filter:    Number of eigenfunctions  of the
           filtering kernel (total, used)= 55 20
atom: Total number of Sankey-type orbitals:  5

atm_pop: Valence configuration (for local Pseudopot. screening):
 1s( 1.00)
 2p( 0.00)
Vna: chval, zval:    1.00000   1.00000

Vna:  Cut-off radius for the neutral-atom potential:   5.772464
VNA Filter: diagnostic kinetic energy tol:    0.003000 Ry
VNA Filter: Nominal cutoff (before filtering):21300.87 Ry
VNA Filter: Cutoff used:   290.00 Ry
Filter:    Number of eigenfunctions  of the
           filtering kernel (total, used)= 74 30

atom: _________________________________________________________________________

<basis_specs>
N                    Z=   7    Mass=  14.007        Charge= 0.17977+309
Lmxo=2 Lmxkb= 2    BasisType=split      Semic=F
L=0  Nsemic=0  Cnfigmx=2
          i=1  nzeta=2  polorb=0  (2s)
            splnorm:   0.28000
               vcte:    40.000
               rinn:  -0.90000
               qcoe:    0.0000
               qyuk:    0.0000
               qwid:   0.10000E-01
                rcs:    0.0000      0.0000
            lambdas:    1.0000      1.0000
L=1  Nsemic=0  Cnfigmx=2
          i=1  nzeta=2  polorb=1  (2p)  (to be polarized perturbatively)
            splnorm:   0.28000
               vcte:    40.000
               rinn:  -0.90000
               qcoe:    0.0000
               qyuk:    0.0000
               qwid:   0.10000E-01
                rcs:    0.0000      0.0000
            lambdas:    1.0000      1.0000
L=2  Nsemic=0  Cnfigmx=3
          i=1  nzeta=0  polorb=0  (3d)  (perturbative polarization orbital) (from 2p)
L=0  Nkbl=1  erefs: 0.17977+309
L=1  Nkbl=1  erefs: 0.17977+309
L=2  Nkbl=1  erefs: 0.17977+309
</basis_specs>

Filter: Requested cutoff:  290.000000 Ry
Using PAO.SplitTailNorm
atom: Called for N                     (Z =   7)
Maximum radius (at nrval) set to   50.00000 8518

[...]

KBgen: Kleinman-Bylander projectors:
GHOST: No ghost state for L =  0
   l= 0   rc=  3.286396   el= -1.364990   Ekb= -4.084395   kbcos= -0.707149
GHOST: No ghost state for L =  1
j- l= 1   rc=  3.273237   el= -0.522099   Ekb= -9.337483   kbcos= -0.603568
GHOST: No ghost state for L =  1
j+ l= 1   rc=  3.273237   el= -0.520710   Ekb= -9.322891   kbcos= -0.603256
[...]
     spin moment: {S} , |S| = {   -0.00000   -0.00000    0.00000 }     0.00000
   scf:    7    -3968.371798    -3968.371798    -3968.371798  0.000001 -4.025342  0.000010
     spin moment: {S} , |S| = {   -0.00000   -0.00000    0.00000 }     0.00000
   scf:    8    -3968.371798    -3968.371798    -3968.371798  0.000000 -4.025340  0.000005
     spin moment: {S} , |S| = {   -0.00000   -0.00000    0.00000 }     0.00000
   scf:    9    -3968.371798    -3968.371798    -3968.371798  0.000000 -4.025339  0.000001
     spin moment: {S} , |S| = {   -0.00000   -0.00000    0.00000 }     0.00000
   scf:   10    -3968.371798    -3968.371798    -3968.371798  0.000000 -4.025339  0.000000
     spin moment: {S} , |S| = {   -0.00000   -0.00000    0.00000 }     0.00000

[...]

        iscf     Eharris(eV)        E_KS(eV)     FreeEng(eV)     dDmax    Ef(eV) dHmax(eV)
   scf:    1    -3968.366788    -3968.372132    -3968.372132  0.000576 -4.004283  0.021751
     spin moment: {S} , |S| = {   -0.00000    0.00000    0.00000 }     0.00000
   scf:    2    -3968.371413    -3968.371928    -3968.371928  0.000936 -3.989941  0.068352
     spin moment: {S} , |S| = {   -0.00000    0.00000    0.00000 }     0.00000
   scf:    3    -3968.372216    -3968.372159    -3968.372159  0.000711 -4.000700  0.001155
     spin moment: {S} , |S| = {   -0.00000    0.00000    0.00000 }     0.00000
   scf:    4    -3968.372159    -3968.372159    -3968.372159  0.000015 -4.000559  0.000570
     spin moment: {S} , |S| = {   -0.00000    0.00000    0.00000 }     0.00000
   scf:    5    -3968.372159    -3968.372159    -3968.372159  0.000008 -4.000481  0.000178
     spin moment: {S} , |S| = {   -0.00000    0.00000    0.00000 }     0.00000
   scf:    6    -3968.372159    -3968.372159    -3968.372159  0.000004 -4.000436  0.000060
     spin moment: {S} , |S| = {   -0.00000    0.00000    0.00000 }     0.00000
   scf:    7    -3968.372159    -3968.372159    -3968.372159  0.000001 -4.000429  0.000021
     spin moment: {S} , |S| = {   -0.00000    0.00000    0.00000 }     0.00000
   scf:    8    -3968.372159    -3968.372159    -3968.372159  0.000000 -4.000428  0.000011
     spin moment: {S} , |S| = {   -0.00000    0.00000    0.00000 }     0.00000
   scf:    9    -3968.372159    -3968.372159    -3968.372159  0.000000 -4.000427  0.000003
     spin moment: {S} , |S| = {   -0.00000    0.00000    0.00000 }     0.00000
   scf:   10    -3968.372159    -3968.372159    -3968.372159  0.000000 -4.000428  0.000001
     spin moment: {S} , |S| = {   -0.00000    0.00000    0.00000 }     0.00000
   scf:   11    -3968.372159    -3968.372159    -3968.372159  0.000000 -4.000428  0.000000
     spin moment: {S} , |S| = {   -0.00000    0.00000    0.00000 }     0.00000

[...]

        iscf     Eharris(eV)        E_KS(eV)     FreeEng(eV)     dDmax    Ef(eV) dHmax(eV)
   scf:    1    -3968.369760    -3968.372206    -3968.372206  0.000249 -3.999190  0.007150
     spin moment: {S} , |S| = {   -0.00000    0.00000    0.00000 }     0.00000
   scf:    2    -3968.372110    -3968.372179    -3968.372179  0.000349 -3.995155  0.024471
     spin moment: {S} , |S| = {   -0.00000    0.00000    0.00000 }     0.00000
   scf:    3    -3968.372217    -3968.372210    -3968.372210  0.000260 -3.998304  0.000717
     spin moment: {S} , |S| = {   -0.00000    0.00000    0.00000 }     0.00000
   scf:    4    -3968.372210    -3968.372210    -3968.372210  0.000010 -3.998343  0.000281
     spin moment: {S} , |S| = {   -0.00000    0.00000    0.00000 }     0.00000
   scf:    5    -3968.372210    -3968.372210    -3968.372210  0.000004 -3.998354  0.000090
     spin moment: {S} , |S| = {   -0.00000    0.00000    0.00000 }     0.00000
   scf:    6    -3968.372210    -3968.372210    -3968.372210  0.000001 -3.998353  0.000014
     spin moment: {S} , |S| = {   -0.00000    0.00000    0.00000 }     0.00000
   scf:    7    -3968.372210    -3968.372210    -3968.372210  0.000001 -3.998350  0.000007
     spin moment: {S} , |S| = {   -0.00000    0.00000    0.00000 }     0.00000
   scf:    8    -3968.372210    -3968.372210    -3968.372210  0.000000 -3.998349  0.000003
     spin moment: {S} , |S| = {   -0.00000    0.00000    0.00000 }     0.00000
   scf:    9    -3968.372210    -3968.372210    -3968.372210  0.000000 -3.998349  0.000001
     spin moment: {S} , |S| = {   -0.00000    0.00000    0.00000 }     0.00000

[...]

        iscf     Eharris(eV)        E_KS(eV)     FreeEng(eV)     dDmax    Ef(eV) dHmax(eV)
   scf:    1    -3968.371769    -3968.372341    -3968.372341  0.000146 -4.008733  0.004168
     spin moment: {S} , |S| = {   -0.00000    0.00000    0.00000 }     0.00000
   scf:    2    -3968.372315    -3968.372333    -3968.372333  0.000229 -4.008222  0.014767
     spin moment: {S} , |S| = {   -0.00000    0.00000    0.00000 }     0.00000
   scf:    3    -3968.372344    -3968.372342    -3968.372342  0.000176 -4.008601  0.000450
     spin moment: {S} , |S| = {   -0.00000    0.00000    0.00000 }     0.00000
   scf:    4    -3968.372342    -3968.372342    -3968.372342  0.000008 -4.008627  0.000138
     spin moment: {S} , |S| = {   -0.00000    0.00000    0.00000 }     0.00000
   scf:    5    -3968.372342    -3968.372342    -3968.372342  0.000003 -4.008630  0.000044
     spin moment: {S} , |S| = {   -0.00000    0.00000    0.00000 }     0.00000
   scf:    6    -3968.372342    -3968.372342    -3968.372342  0.000002 -4.008635  0.000014
     spin moment: {S} , |S| = {   -0.00000    0.00000    0.00000 }     0.00000
   scf:    7    -3968.372342    -3968.372342    -3968.372342  0.000001 -4.008636  0.000009
     spin moment: {S} , |S| = {   -0.00000    0.00000    0.00000 }     0.00000
   scf:    8    -3968.372342    -3968.372342    -3968.372342  0.000000 -4.008636  0.000004
     spin moment: {S} , |S| = {   -0.00000    0.00000    0.00000 }     0.00000
   scf:    9    -3968.372342    -3968.372342    -3968.372342  0.000000 -4.008636  0.000001
     spin moment: {S} , |S| = {   -0.00000    0.00000    0.00000 }     0.00000

[...]

        iscf     Eharris(eV)        E_KS(eV)     FreeEng(eV)     dDmax    Ef(eV) dHmax(eV)
   scf:    1    -3968.373016    -3968.372355    -3968.372355  0.000065 -4.012254  0.003099
     spin moment: {S} , |S| = {   -0.00000    0.00000    0.00000 }     0.00000
   scf:    2    -3968.372345    -3968.372352    -3968.372352  0.000130 -4.013946  0.010545
     spin moment: {S} , |S| = {   -0.00000    0.00000    0.00000 }     0.00000
   scf:    3    -3968.372356    -3968.372356    -3968.372356  0.000101 -4.012670  0.000503
     spin moment: {S} , |S| = {   -0.00000    0.00000    0.00000 }     0.00000
   scf:    4    -3968.372356    -3968.372356    -3968.372356  0.000004 -4.012722  0.000163
     spin moment: {S} , |S| = {   -0.00000    0.00000    0.00000 }     0.00000
   scf:    5    -3968.372356    -3968.372356    -3968.372356  0.000001 -4.012743  0.000020
     spin moment: {S} , |S| = {   -0.00000    0.00000    0.00000 }     0.00000
   scf:    6    -3968.372356    -3968.372356    -3968.372356  0.000000 -4.012748  0.000006
     spin moment: {S} , |S| = {   -0.00000    0.00000    0.00000 }     0.00000
   scf:    7    -3968.372356    -3968.372356    -3968.372356  0.000000 -4.012750  0.000002
     spin moment: {S} , |S| = {   -0.00000    0.00000    0.00000 }     0.00000
   scf:    8    -3968.372356    -3968.372356    -3968.372356  0.000000 -4.012750  0.000001
     spin moment: {S} , |S| = {   -0.00000    0.00000    0.00000 }     0.00000

[...]

                        Begin Broyden opt. move =     29

outcoor: Atomic coordinates (Ang):
    0.96870821    3.54504425    0.00000000   1       1  H
    0.28711258    2.74912691    0.00000000   2       2  N
   -1.42071279    3.18910325    0.00000000   3       3  Si
   -1.56500281    4.67662439    0.00000000   1       4  H
   -2.96939626    1.65863702    0.00000000   3       5  Si
   -4.43880620    1.91429835    0.00000000   1       6  H
   -1.75395092   -0.21008586    0.00000000   3       7  Si
   -2.48388205   -1.79015748    0.00000000   2       8  N
   -1.87391688   -2.63849724    0.00000000   1       9  H
   -3.51345758   -1.96432550    0.00000000   1      10  H
   -0.08526415   -0.16264518    0.00000000   2      11  N
    1.05464802    1.10066092    0.00000000   3      12  Si
    2.63019961    1.07131432    0.00000000   4      13  O

outcell: Unit cell vectors (Ang):
       13.908324    0.000000    0.000000
        0.000000   14.884805    0.000000
        0.000000    0.000000    8.754136

outcell: Cell vector modules (Ang)   :   13.908324   14.884805    8.754136
outcell: Cell angles (23,13,12) (deg):     90.0000     90.0000     90.0000
outcell: Cell volume (Ang**3)        :   1812.3048
<dSpData1D:S at geom step 29
  <sparsity:sparsity for geom step 29
    nrows_g=129 nrows=5 sparsity=.0379 nnzs=630, refcount: 8>
  <dData1D:(new from dSpData1D) n=630, refcount: 1>
refcount: 1>
new_DM -- step:    30
Re-using DM from previous geometries...
Number of DMs in history: 1
 DM extrapolation coefficients:
1   1.00000
New DM after history re-use:
<dSpData2D:SpM extrapolated using coords
  <sparsity:sparsity for geom step 29
    nrows_g=129 nrows=5 sparsity=.0379 nnzs=630, refcount: 10>
  <dData2D:(temp array for extrapolation) n=630 m=8, refcount: 1>
refcount: 1>
     spin moment: {S} , |S| = {   -0.00000    0.00000    0.00000 }     0.00000

InitMesh: MESH = 150 x 160 x 96 = 2304000
InitMesh: Mesh cutoff (required, used) =   300.000   319.342 Ry
New grid distribution [1]: sub = 2
New grid distribution [2]: sub = 2
New grid distribution [3]: sub = 2
Setting up quadratic distribution...

        iscf     Eharris(eV)        E_KS(eV)     FreeEng(eV)     dDmax    Ef(eV) dHmax(eV)
   scf:    1    -3968.372372    -3968.372367    -3968.372367  0.000054 -4.015936  0.001714
     spin moment: {S} , |S| = {   -0.00000    0.00000    0.00000 }     0.00000
   scf:    2    -3968.372363    -3968.372366    -3968.372366  0.000075 -4.016464  0.005781
     spin moment: {S} , |S| = {   -0.00000    0.00000    0.00000 }     0.00000
   scf:    3    -3968.372367    -3968.372367    -3968.372367  0.000058 -4.016021  0.000209
     spin moment: {S} , |S| = {   -0.00000    0.00000    0.00000 }     0.00000
   scf:    4    -3968.372367    -3968.372367    -3968.372367  0.000003 -4.016014  0.000086
     spin moment: {S} , |S| = {   -0.00000    0.00000    0.00000 }     0.00000
   scf:    5    -3968.372367    -3968.372367    -3968.372367  0.000001 -4.016012  0.000030
     spin moment: {S} , |S| = {   -0.00000    0.00000    0.00000 }     0.00000
   scf:    6    -3968.372367    -3968.372367    -3968.372367  0.000001 -4.016013  0.000005
     spin moment: {S} , |S| = {   -0.00000    0.00000    0.00000 }     0.00000
   scf:    7    -3968.372367    -3968.372367    -3968.372367  0.000000 -4.016014  0.000001
     spin moment: {S} , |S| = {   -0.00000    0.00000    0.00000 }     0.00000
   scf:    8    -3968.372367    -3968.372367    -3968.372367  0.000000 -4.016014  0.000000
     spin moment: {S} , |S| = {   -0.00000    0.00000    0.00000 }     0.00000

SCF Convergence by DM+H criterion
max |DM_out - DM_in|         :     0.0000000568
max |H_out - H_in|      (eV) :     0.0000004534
SCF cycle converged after 8 iterations

Using DM_out to compute the final energy and forces

siesta: E_KS(eV) =            -3968.3724
     spin moment: {S} , |S| = {   -0.00000    0.00000    0.00000 }     0.00000

siesta: Atomic forces (eV/Ang):
     1    0.005872    0.002106    0.000000
     2    0.004959   -0.000206    0.000000
     3    0.004377   -0.002949   -0.000000
     4    0.002342   -0.002958    0.000000
     5   -0.032940    0.001056   -0.000000
     6    0.000179    0.001319   -0.000000
     7    0.002972    0.001328    0.000000
     8    0.005231    0.002586   -0.000000
     9    0.005845    0.000377    0.000000
    10    0.002552    0.002866   -0.000000
    11    0.004264   -0.000243   -0.000000
    12    0.004473   -0.000740   -0.000000
    13    0.004922   -0.002438    0.000000
   Tot    0.015049    0.002105    0.000000
   Max    0.032940
   Res    0.005897    sqrt( Sum f_i^2 / 3N )
   Max    0.005872    constrained

Stress tensor Voigt[x,y,z,yz,xz,xy] (kbar):        0.04        0.01       -0.05       -0.00       -0.00        0.02
(Free)E + p*V (eV/cell)    -3968.3754
Target enthalpy (eV/cell)    -3968.3724

outcoor: Relaxed atomic coordinates (Ang):
    0.96870821    3.54504425    0.00000000   1       1  H
    0.28711258    2.74912691    0.00000000   2       2  N
   -1.42071279    3.18910325    0.00000000   3       3  Si
   -1.56500281    4.67662439    0.00000000   1       4  H
   -2.96939626    1.65863702    0.00000000   3       5  Si
   -4.43880620    1.91429835    0.00000000   1       6  H
   -1.75395092   -0.21008586    0.00000000   3       7  Si
   -2.48388205   -1.79015748    0.00000000   2       8  N
   -1.87391688   -2.63849724    0.00000000   1       9  H
   -3.51345758   -1.96432550    0.00000000   1      10  H
   -0.08526415   -0.16264518    0.00000000   2      11  N
    1.05464802    1.10066092    0.00000000   3      12  Si
    2.63019961    1.07131432    0.00000000   4      13  O

siesta: Program's energy decomposition (eV):
siesta: Ebs     =      -479.105982
siesta: Eions   =      4233.020741
siesta: Ena     =       936.102479
siesta: Ekin    =      1147.442590
siesta: Enl(+so)=      -772.573531
siesta: Eso(nil)=         0.000000
siesta: Edftu   =         0.000000
siesta: DEna    =         0.776295
siesta: DUscf   =         5.400048
siesta: DUext   =         0.000000
siesta: Ex      =      -988.295192
siesta: Ec      =       -64.204315
siesta: Exc     =     -1052.499507
siesta: EbV     =         0.000000
siesta: eta*DQ  =         0.000000
siesta: Emadel  =         0.000000
siesta: Emeta   =         0.000000
siesta: Emolmec =         0.000000
siesta: Ekinion =         0.000000
siesta: Eharris =     -3968.372367
siesta: Etot    =     -3968.372367
siesta: FreeEng =     -3968.372367

siesta: Final energy (eV):
siesta:  Band Struct. =    -479.105982
siesta:       Kinetic =    1147.442590
siesta:       Hartree =    2622.161702
siesta:         Edftu =       0.000000
siesta:      Eso(nil) =       0.000000
siesta:    Ext. field =       0.000000
siesta:         Exch. =    -988.295192
siesta:         Corr. =     -64.204315
siesta:     Bulk bias =       0.000000
siesta:   Exch.-corr. =   -1052.499507
siesta:  Ion-electron =   -6242.358504
siesta:       Ion-ion =    -443.118648
siesta:       Ekinion =       0.000000
siesta: D3 dispersion =       0.000000
siesta:         Total =   -3968.372367
siesta:         Fermi =      -4.016014

siesta: Atomic forces (eV/Ang):
siesta:      1    0.005872    0.002106    0.000000
siesta:      2    0.004959   -0.000206    0.000000
siesta:      3    0.004377   -0.002949   -0.000000
siesta:      4    0.002342   -0.002958    0.000000
siesta:      5   -0.032940    0.001056   -0.000000
siesta:      6    0.000179    0.001319   -0.000000
siesta:      7    0.002972    0.001328    0.000000
siesta:      8    0.005231    0.002586   -0.000000
siesta:      9    0.005845    0.000377    0.000000
siesta:     10    0.002552    0.002866   -0.000000
siesta:     11    0.004264   -0.000243   -0.000000
siesta:     12    0.004473   -0.000740   -0.000000
siesta:     13    0.004922   -0.002438    0.000000
siesta: ----------------------------------------
siesta:    Tot    0.015049    0.002105    0.000000

siesta: Stress tensor (static) (eV/Ang**3):
siesta:     0.000028    0.000012   -0.000000
siesta:     0.000012    0.000009    0.000000
siesta:    -0.000000   -0.000000   -0.000032

siesta: Cell volume =       1812.304830 Ang**3

siesta: Pressure (static):
siesta:                Solid            Molecule  Units
siesta:          -0.00000002         -0.00000014  Ry/Bohr**3
siesta:          -0.00000169         -0.00001307  eV/Ang**3
siesta:          -0.00270990         -0.02094049  kBar
(Free)E+ p_basis*V_orbitals  =       -3962.098868
(Free)Eharris+ p_basis*V_orbitals  =       -3962.098868
     spin moment: {S} , |S| = {   -0.00000    0.00000    0.00000 }     0.00000

siesta: Electric dipole (a.u.)  =   -2.946126    0.211681   -0.000000
siesta: Electric dipole (Debye) =   -7.488304    0.538041   -0.000000

cite: Please see "Cytosine.bib" for an exhaustive BiBTeX file.
cite: Please clearly indicate Siesta version in published work: 5.1-MaX-41-g6ad11e234
cite: This calculation has made use of the following articles
cite: which are encouraged to be cited in a published work.
        Primary SIESTA paper
          DOI: www.doi.org/10.1088/0953-8984/14/11/302
        Spin-orbit coupling (off-site approximation)
          DOI: www.doi.org/10.1088/0953-8984/24/8/086005
        ELPA library
          DOI: www.doi.org/10.1088/0953-8984/26/21/213201

>> End of run:  11-OCT-2024  20:55:41
Job completed