>> Start of run:  16-OCT-2023  18:22:47

reinit: Reading from standard input
reinit: Dumped input in INPUT_TMP.22965
************************** Dump of input data file ****************************
# mpirun -np 4 siesta-4.1.5 < GC.fdf > GC.out &
SystemLabel      GC
NumberOfAtoms    29
NumberOfSpecies  4
%block ChemicalSpeciesLabel
    1    1  H
    2    7  N
    3   14  Si
    4    8  O
%endblock ChemicalSpeciesLabel
# This overrides Defaults.fdf configuration
MD.TypeOfRun                CG # CG, Verlet
MD.Steps                    0
MaxSCFIterations            600
AtomicCoordinatesFormat NotScaledCartesianAng
%block AtomicCoordinatesAndAtomicSpecies
    0.7665840126319079 3.9960845061802095 0.0  1  1  H
    0.060097282631907945 3.2060483261802095 0.0  2  2  N
    -1.670189627368092 3.6474122361802093 0.0  3  3  Si
    -1.825969307368092 5.13740449618021 0.0  1  4  H
    -3.193511247368092 2.0885047161802093 0.0  3  5  Si
    -4.676698877368093 2.3313350761802094 0.0  1  6  H
    -1.995120387368092 0.1752285561802095 0.0  3  7  Si
    -2.761145847368092 -1.3574881838197905 0.0  2  8  N
    -2.1708992973680923 -2.3147012138197907 0.0  1  9  H
    -3.812768167368092 -1.4379484138197904 0.0  1  10  H
    -0.2789203273680921 0.23040286618020947 0.0  2  11  N
    0.7961022926319079 1.5607417061802096 0.0  3  12  Si
    2.4047756126319078 1.5419314461802096 0.0  4  13  O
    5.6164483 -7.44953905 0.0  1  14  H
    4.58206954 -7.2320376 0.0  2  15  N
    3.29666389 -8.492636 0.0  3  16  Si
    3.80117524 -9.90371886 -0.0  1  17  H
    1.65934232 -8.01362137 0.0  2  18  N
    1.68097912 -6.20463398 -0.0  3  19  Si
    0.54543521 -4.28636135 0.0  3  20  Si
    -1.03431493 -3.94450034 0.0  4  21  O
    1.73226934 -2.87719605 0.0  2  22  N
    1.20957366 -1.92961761 -0.0  1  23  H
    3.50853448 -2.77677601 0.0  3  24  Si
    4.13684451 -1.17938608 0.0  2  25  N
    3.54296161 -0.26248101 0.0  1  26  H
    5.18364407 -1.05231197 -0.0  1  27  H
    4.63288658 -4.07521596 -0.0  2  28  N
    3.79410501 -5.58634043 0.0  3  29  Si
%endblock AtomicCoordinatesAndAtomicSpecies
%include ../../../../Defaults.fdf
************************** End of input data file *****************************

reinit: -----------------------------------------------------------------------
reinit: System Name:
reinit: -----------------------------------------------------------------------
reinit: System Label: GC
reinit: -----------------------------------------------------------------------

initatom: Reading input for the pseudopotentials and atomic orbitals ----------
Species number:   1 Atomic number:    1 Label: H
Species number:   2 Atomic number:    7 Label: N
Species number:   3 Atomic number:   14 Label: Si
Species number:   4 Atomic number:    8 Label: O

Ground state valence configuration:   1s01
Reading pseudopotential information in formatted form from H.psf

Pseudopotential generated from a relativistic atomic calculation

Valence configuration for pseudopotential generation:
1s( 1.00) rc: 0.01
2p( 0.00) rc: 0.60
3d( 0.00) rc: 1.99
4f( 0.00) rc: 2.49
Ground state valence configuration:   2s02  2p03
Reading pseudopotential information in formatted form from N.psf

[...]

Valence configuration for pseudopotential generation:
3s( 2.00) rc: 1.67
3p( 2.00) rc: 2.04
3d( 0.00) rc: 2.89
4f( 0.00) rc: 2.49
Ground state valence configuration:   2s02  2p04
Reading pseudopotential information in formatted form from O.psf

Pseudopotential generated from a relativistic atomic calculation

Valence configuration for pseudopotential generation:
2s( 2.00) rc: 0.45
2p( 4.00) rc: 0.92
3d( 0.00) rc: 2.24
4f( 0.00) rc: 0.25
For H, standard SIESTA heuristics set lmxkb to 2
 (one more than the basis l, including polarization orbitals).
Use PS.lmax or PS.KBprojectors blocks to override.
For N, standard SIESTA heuristics set lmxkb to 3
 (one more than the basis l, including polarization orbitals).
Use PS.lmax or PS.KBprojectors blocks to override.
For Si, standard SIESTA heuristics set lmxkb to 3
 (one more than the basis l, including polarization orbitals).
Use PS.lmax or PS.KBprojectors blocks to override.
For O, standard SIESTA heuristics set lmxkb to 3
 (one more than the basis l, including polarization orbitals).
Use PS.lmax or PS.KBprojectors blocks to override.

<basis_specs>
H                    Z=   1    Mass=  1.0100        Charge= 0.17977+309
Lmxo=0 Lmxkb= 2    BasisType=split      Semic=F
L=0  Nsemic=0  Cnfigmx=1
          i=1  nzeta=2  polorb=1  (1s)
            splnorm:   0.62000
               vcte:    0.0000
               rinn:    0.0000
               qcoe:    0.0000
               qyuk:    0.0000
               qwid:   0.10000E-01
                rcs:    0.0000      0.0000
            lambdas:    1.0000      1.0000
L=0  Nkbl=1  erefs: 0.17977+309
L=1  Nkbl=1  erefs: 0.17977+309
L=2  Nkbl=1  erefs: 0.17977+309
</basis_specs>

atom: Called for H                     (Z =   1)

read_vps: Pseudopotential generation method:
read_vps: ATM4.2.7  Troullier-Martins
Valence charge for ps generation:    1.00000

xc_check: Exchange-correlation functional:
xc_check: GGA Perdew, Burke & Ernzerhof 1996
V l=0 = -2*Zval/r beyond r=  0.0098
V l=1 = -2*Zval/r beyond r=  0.5817
V l=2 = -2*Zval/r beyond r=  1.9372
All V_l potentials equal beyond r=  1.9372
This should be close to max(r_c) in ps generation
All pots = -2*Zval/r beyond r=  1.9372

VLOCAL1: 99.0% of the norm of Vloc inside     11.567 Ry
VLOCAL1: 99.9% of the norm of Vloc inside     26.362 Ry
atom: Maximum radius for 4*pi*r*r*local-pseudopot. charge    2.25106
atom: Maximum radius for r*vlocal+2*Zval:    1.91306
GHOST: No ghost state for L =  0
GHOST: No ghost state for L =  1
GHOST: No ghost state for L =  2

KBgen: Kleinman-Bylander projectors:
   l= 0   rc=  2.036604   el= -0.477180   Ekb= -6.081590   kbcos= -0.277285
   l= 1   rc=  2.195416   el=  0.001076   Ekb= -0.926943   kbcos= -0.034643
   l= 2   rc=  2.251056   el=  0.002010   Ekb= -0.130941   kbcos= -0.009788

KBgen: Total number of Kleinman-Bylander projectors:    9
atom: -------------------------------------------------------------------------

atom: SANKEY-TYPE ORBITALS:
atom: Selected multiple-zeta basis: split

SPLIT: Orbitals with angular momentum L= 0

SPLIT: Basis orbitals for state 1s

SPLIT: PAO cut-off radius determined from an
SPLIT: energy shift=  0.002000 Ry

   izeta = 1
                 lambda =    1.000000
                     rc =    6.518340
                 energy =   -0.475305
                kinetic =    0.912139
    potential(screened) =   -1.387444
       potential(ionic) =   -1.907295

   izeta = 2
                 rmatch =    2.141150
              splitnorm =    0.620000
                 energy =    0.566467
                kinetic =    3.772856
    potential(screened) =   -3.206389
       potential(ionic) =   -3.759093

POLgen: Perturbative polarization orbital with L=  1

POLgen: Polarization orbital for state 1s

   izeta = 1
                     rc =    6.518340
                 energy =    0.533861
                kinetic =    1.121086
    potential(screened) =   -0.587225
       potential(ionic) =   -1.053027
atom: Total number of Sankey-type orbitals:  5

atm_pop: Valence configuration (for local Pseudopot. screening):
 1s( 1.00)
Vna: chval, zval:    1.00000   1.00000

Vna:  Cut-off radius for the neutral-atom potential:   6.518340

atom: _________________________________________________________________________

<basis_specs>
N                    Z=   7    Mass=  14.010        Charge= 0.17977+309
Lmxo=1 Lmxkb= 3    BasisType=split      Semic=F
L=0  Nsemic=0  Cnfigmx=2
          i=1  nzeta=2  polorb=0  (2s)
            splnorm:   0.28000
               vcte:    0.0000
               rinn:    0.0000
               qcoe:    0.0000
               qyuk:    0.0000
               qwid:   0.10000E-01
                rcs:    0.0000      0.0000
            lambdas:    1.0000      1.0000
L=1  Nsemic=0  Cnfigmx=2
          i=1  nzeta=2  polorb=1  (2p)
            splnorm:   0.28000
               vcte:    0.0000
               rinn:    0.0000
               qcoe:    0.0000
               qyuk:    0.0000
               qwid:   0.10000E-01
                rcs:    0.0000      0.0000
            lambdas:    1.0000      1.0000
L=0  Nkbl=1  erefs: 0.17977+309
L=1  Nkbl=1  erefs: 0.17977+309
L=2  Nkbl=1  erefs: 0.17977+309
L=3  Nkbl=1  erefs: 0.17977+309
</basis_specs>

[...]

KBgen: Kleinman-Bylander projectors:
   l= 0   rc=  3.417763   el= -1.365098   Ekb= -4.433130   kbcos= -0.707855
   l= 1   rc=  3.375302   el= -0.521201   Ekb=-13.264039   kbcos= -0.535594
   l= 2   rc=  3.872880   el=  0.001991   Ekb= -0.641094   kbcos= -0.062456
   l= 3   rc=  3.970931   el=  0.003093   Ekb= -0.474517   kbcos= -0.018236

[...]

SPLIT: Basis orbitals for state 2p

[...]

POLgen: Polarization orbital for state 2p

[...]

atm_pop: Valence configuration (for local Pseudopot. screening):
 2s( 2.00)
 2p( 3.00)
Vna: chval, zval:    5.00000   5.00000

[...]

KBgen: Kleinman-Bylander projectors:
   l= 0   rc=  3.075247   el= -0.794092   Ekb=  5.879390   kbcos=  0.167461
   l= 1   rc=  3.153101   el= -0.300068   Ekb=  2.642817   kbcos=  0.058301
   l= 2   rc=  3.273594   el=  0.001958   Ekb= -1.185135   kbcos= -0.104411
   l= 3   rc=  3.232927   el=  0.003046   Ekb= -0.497174   kbcos= -0.015889

[...]

<basis_specs>
O                    Z=   8    Mass=  16.000        Charge= 0.17977+309
Lmxo=1 Lmxkb= 3    BasisType=split      Semic=F
L=0  Nsemic=0  Cnfigmx=2
          i=1  nzeta=2  polorb=0  (2s)
            splnorm:   0.28000
               vcte:    0.0000
               rinn:    0.0000
               qcoe:    0.0000
               qyuk:    0.0000
               qwid:   0.10000E-01
                rcs:    0.0000      0.0000
            lambdas:    1.0000      1.0000
L=1  Nsemic=0  Cnfigmx=2
          i=1  nzeta=2  polorb=1  (2p)
            splnorm:   0.28000
               vcte:    0.0000
               rinn:    0.0000
               qcoe:    0.0000
               qyuk:    0.0000
               qwid:   0.10000E-01
                rcs:    0.0000      0.0000
            lambdas:    1.0000      1.0000
L=0  Nkbl=1  erefs: 0.17977+309
L=1  Nkbl=1  erefs: 0.17977+309
L=2  Nkbl=1  erefs: 0.17977+309
L=3  Nkbl=1  erefs: 0.17977+309
</basis_specs>

atom: Called for O                     (Z =   8)

read_vps: Pseudopotential generation method:
read_vps: ATM4.2.7  Troullier-Martins
Valence charge for ps generation:    6.00000

xc_check: Exchange-correlation functional:
xc_check: GGA Perdew, Burke & Ernzerhof 1996
V l=0 = -2*Zval/r beyond r=  1.1000
V l=1 = -2*Zval/r beyond r=  1.1000
V l=2 = -2*Zval/r beyond r=  2.2154
V l=3 = -2*Zval/r beyond r=  1.1000
All V_l potentials equal beyond r=  2.2154
This should be close to max(r_c) in ps generation
All pots = -2*Zval/r beyond r=  2.2154

VLOCAL1: 99.0% of the norm of Vloc inside      8.845 Ry
VLOCAL1: 99.9% of the norm of Vloc inside     20.157 Ry
atom: Maximum radius for 4*pi*r*r*local-pseudopot. charge    2.67231
atom: Maximum radius for r*vlocal+2*Zval:    2.32897
GHOST: No ghost state for L =  0
GHOST: No ghost state for L =  1
GHOST: No ghost state for L =  2
[...]
   scf:    4    -4151.020402    -4146.300592    -4146.300593  0.330998 -3.896011  6.204062
     spin moment: S , {S} =    0.00009  -0.00000  -0.00000   0.00009
   scf:    5    -4147.435012    -4146.961659    -4146.961659  0.036154 -3.699380  4.388424
     spin moment: S , {S} =    0.00006  -0.00000   0.00000   0.00006
   scf:    6    -4147.735825    -4147.353742    -4147.353742  0.024792 -3.650904  2.150217
     spin moment: S , {S} =    0.00003   0.00000  -0.00000   0.00003
   scf:    7    -4147.713823    -4147.531968    -4147.531968  0.021756 -3.731145  0.856878
     spin moment: S , {S} =    0.00001  -0.00000  -0.00000   0.00001
   scf:    8    -4147.647704    -4147.588287    -4147.588287  0.011985 -3.753701  0.470091
     spin moment: S , {S} =    0.00000  -0.00000  -0.00000   0.00000
   scf:    9    -4147.628430    -4147.607702    -4147.607702  0.006948 -3.783250  0.320487
     spin moment: S , {S} =    0.00000  -0.00000  -0.00000   0.00000
   scf:   10    -4147.656106    -4147.627900    -4147.627900  0.017865 -3.796564  0.154571
     spin moment: S , {S} =    0.00000   0.00000  -0.00000  -0.00000
   scf:   11    -4147.630985    -4147.629369    -4147.629369  0.004982 -3.788929  0.049857
     spin moment: S , {S} =    0.00000  -0.00000  -0.00000  -0.00000
   scf:   12    -4147.630115    -4147.629746    -4147.629746  0.001731 -3.784663  0.029909
     spin moment: S , {S} =    0.00000  -0.00000  -0.00000   0.00000
   scf:   13    -4147.630223    -4147.629973    -4147.629973  0.001770 -3.783204  0.022641
     spin moment: S , {S} =    0.00000  -0.00000  -0.00000   0.00000
   scf:   14    -4147.630333    -4147.630138    -4147.630138  0.001868 -3.782634  0.016713
     spin moment: S , {S} =    0.00000   0.00000  -0.00000   0.00000
   scf:   15    -4147.630412    -4147.630256    -4147.630256  0.002058 -3.781588  0.010464
     spin moment: S , {S} =    0.00000   0.00000  -0.00000   0.00000
   scf:   16    -4147.630399    -4147.630312    -4147.630312  0.001901 -3.782003  0.004418
     spin moment: S , {S} =    0.00000   0.00000  -0.00000   0.00000
   scf:   17    -4147.630333    -4147.630320    -4147.630320  0.000721 -3.782215  0.002177
     spin moment: S , {S} =    0.00000   0.00000  -0.00000   0.00000
   scf:   18    -4147.630325    -4147.630322    -4147.630322  0.000311 -3.781707  0.000896
     spin moment: S , {S} =    0.00000   0.00000  -0.00000  -0.00000
   scf:   19    -4147.630323    -4147.630322    -4147.630322  0.000090 -3.781691  0.000523
     spin moment: S , {S} =    0.00000   0.00000  -0.00000  -0.00000
   scf:   20    -4147.630322    -4147.630322    -4147.630322  0.000037 -3.782282  0.000333
     spin moment: S , {S} =    0.00000   0.00000  -0.00000  -0.00000
   scf:   21    -4147.630323    -4147.630322    -4147.630322  0.000052 -3.782240  0.000208
     spin moment: S , {S} =    0.00000   0.00000  -0.00000  -0.00000
   scf:   22    -4147.630322    -4147.630322    -4147.630322  0.000015 -3.782215  0.000083
     spin moment: S , {S} =    0.00000   0.00000  -0.00000  -0.00000
   scf:   23    -4147.630322    -4147.630322    -4147.630322  0.000005 -3.782214  0.000051
     spin moment: S , {S} =    0.00000   0.00000  -0.00000  -0.00000
   scf:   24    -4147.630322    -4147.630322    -4147.630322  0.000003 -3.782210  0.000033
     spin moment: S , {S} =    0.00000   0.00000  -0.00000  -0.00000
mix: Pulay -- resetting history
   scf:   25    -4147.630322    -4147.630322    -4147.630322  0.000003 -3.782205  0.000012
     spin moment: S , {S} =    0.00000   0.00000  -0.00000  -0.00000
   scf:   26    -4147.630322    -4147.630322    -4147.630322  0.000002 -3.782202  0.000006
     spin moment: S , {S} =    0.00000   0.00000  -0.00000  -0.00000
   scf:   27    -4147.630322    -4147.630322    -4147.630322  0.000001 -3.782201  0.000003
     spin moment: S , {S} =    0.00000   0.00000  -0.00000   0.00000
   scf:   28    -4147.630322    -4147.630322    -4147.630322  0.000000 -3.782201  0.000003
     spin moment: S , {S} =    0.00000   0.00000  -0.00000  -0.00000
   scf:   29    -4147.630322    -4147.630322    -4147.630322  0.000000 -3.782201  0.000002
     spin moment: S , {S} =    0.00000   0.00000  -0.00000  -0.00000
   scf:   30    -4147.630322    -4147.630322    -4147.630322  0.000000 -3.782201  0.000001
     spin moment: S , {S} =    0.00000   0.00000  -0.00000  -0.00000

SCF Convergence by DM+H criterion
max |DM_out - DM_in|         :     0.0000002805
max |H_out - H_in|      (eV) :     0.0000007736
SCF cycle converged after 30 iterations

Using DM_out to compute the final energy and forces
No. of atoms with KB's overlaping orbs in proc 0. Max # of overlaps:      28     189

siesta: E_KS(eV) =            -4147.6303

siesta: E_KS - E_eggbox =     -4147.6303
     spin moment: S , {S} =    0.00000   0.00000  -0.00000  -0.00000

siesta: Atomic forces (eV/Ang):
     1    0.067477    0.037602   -0.000000
     2   -0.181539    0.114475   -0.000000
     3    0.179351   -0.020057    0.000000
     4   -0.066206    0.101961   -0.000000
     5   -0.093118   -0.092811    0.000000
     6    0.064336    0.027160   -0.000000
     7    0.564703    0.382551    0.000000
     8    0.675326   -1.494720   -0.000000
     9   -0.714139    0.817092   -0.000000
    10    0.086791   -0.156761    0.000000
    11   -0.343885   -0.182829   -0.000000
    12    0.463201   -0.146470    0.000000
    13   -0.493992   -4.786257    0.000000
    14   -0.021510    0.070871    0.000000
    15    0.045559    0.023083   -0.000000
    16    0.008466   -0.004141   -0.000000
    17   -0.072903    0.002518   -0.000000
    18   -0.009802    0.022970    0.000000
    19    0.111915    0.010424    0.000000
    20   -0.606544   -0.017883    0.000000
    21   -2.398191    2.816551   -0.000000
    22    0.055127    0.371624   -0.000000
    23    0.164040   -0.347095    0.000000
    24   -0.176476   -0.341481    0.000000
    25   -0.397105    0.971671   -0.000000
    26    0.370558   -0.532689    0.000000
    27   -0.154508    0.005086   -0.000000
    28    0.008951    0.307387    0.000000
    29   -0.130863   -0.163964   -0.000000
   Tot   -2.994980   -2.204132    0.000000
   Max    4.786257
   Res    0.712996    sqrt( Sum f_i^2 / 3N )
   Max    4.786257    constrained

Stress tensor Voigt[x,y,z,yz,xz,xy] (kbar):        1.50        1.07       -0.10       -0.00        0.00       -1.27
(Free)E + p*V (eV/cell)    -4149.9358
Target enthalpy (eV/cell)    -4147.6303

siesta: Eigenvalues (eV):
ik =     1
  -22.3606  -22.3606  -21.9648  -21.9648  -21.3235  -21.3235  -21.2840  -21.2840  -21.1884  -21.1884
  -21.0704  -21.0704  -20.5178  -20.5178  -19.6309  -19.6309  -19.5460  -19.5460  -19.3642  -19.3642
  -14.7932  -14.7932  -13.8207  -13.8207  -13.2723  -13.2723  -13.0724  -13.0724  -12.8859  -12.8859
  -12.8111  -12.8111  -12.5924  -12.5924  -12.1503  -12.1503  -11.9676  -11.9676  -11.8595  -11.8595
  -11.1487  -11.1487  -10.8303  -10.8303  -10.6730  -10.6730  -10.5371  -10.5371  -10.1719  -10.1719
   -9.6431   -9.6431   -9.1287   -9.1287   -8.8891   -8.8891   -8.8195   -8.8195   -8.6113   -8.6113
   -8.5632   -8.5632   -8.4564   -8.4564   -8.2015   -8.2015   -8.0530   -8.0530   -7.7815   -7.7815
   -7.6650   -7.6650   -7.3764   -7.3764   -7.1654   -7.1654   -6.9838   -6.9838   -6.7768   -6.7768
   -6.6302   -6.6302   -6.4288   -6.4288   -6.4052   -6.4052   -6.3369   -6.3369   -6.2228   -6.2228
   -6.2147   -6.2147   -5.9130   -5.9130   -5.5728   -5.5728   -4.3134   -4.3134   -3.2510   -3.2510
   -2.3428   -2.3428   -2.3403   -2.3403   -2.2322   -2.2322   -1.8874   -1.8874   -1.8629   -1.8629
   -1.8407   -1.8407   -1.7402   -1.7402   -1.6308   -1.6308   -1.3210   -1.3210   -1.1677   -1.1677
   -0.9588   -0.9588   -0.6617   -0.6617   -0.3724   -0.3724   -0.3583   -0.3583    0.3129    0.3129
    0.4353    0.4353    0.5374    0.5374    0.6321    0.6321    0.9471    0.9471    1.1355    1.1355
    1.2828    1.2828    1.3732    1.3732    1.3974    1.3974    1.4799    1.4799    1.8666    1.8666
    2.0033    2.0033    2.2294    2.2294    2.5677    2.5677    2.7183    2.7183    2.7432    2.7432
    2.7581    2.7581    2.8336    2.8336    2.9412    2.9412    3.4009    3.4009    3.4197    3.4197
    3.7345    3.7345    4.0163    4.0163    4.0477    4.0477    4.1788    4.1788    4.2227    4.2227
    4.5150    4.5150    4.6252    4.6252    4.7004    4.7004    4.7974    4.7974    5.0458    5.0458
    5.1168    5.1168    5.2792    5.2792    5.3654    5.3654    5.5935    5.5935    5.6558    5.6558
    5.9106    5.9106    5.9927    5.9927    6.0925    6.0925    6.3613    6.3613    6.4586    6.4586
    6.5214    6.5214    6.6508    6.6508    6.6613    6.6613    6.7696    6.7696    7.0326    7.0326
    7.1902    7.1902    7.3040    7.3040    7.6007    7.6007    7.7617    7.7617    7.9378    7.9378
    8.0468    8.0468    8.1088    8.1088    8.1738    8.1738    8.4165    8.4165    8.6520    8.6520
    8.8103    8.8103    8.8818    8.8818    8.9408    8.9408    9.0346    9.0346    9.2766    9.2766
    9.3953    9.3953    9.8253    9.8253    9.8391    9.8391    9.8994    9.8994   10.1279   10.1279
   10.2435   10.2435   10.4350   10.4350   10.6502   10.6502   11.0824   11.0824   11.1532   11.1532
   11.2078   11.2078   11.4721   11.4721   12.0393   12.0393   12.0574   12.0574   12.1087   12.1087
   12.2348   12.2348   12.4522   12.4522   12.4563   12.4563   12.7592   12.7592   12.9186   12.9186
   13.1461   13.1461   13.2973   13.2973   13.5169   13.5169   13.7280   13.7280   13.8304   13.8304
   14.1256   14.1256   14.1892   14.1892   14.6299   14.6299   14.8435   14.8435   14.8482   14.8482
   15.3471   15.3471   15.7138   15.7138   16.2325   16.2325   16.6884   16.6884   16.7254   16.7254
   17.0590   17.0590   17.3906   17.3906   17.6698   17.6698   18.5827   18.5827   18.7710   18.7710
   19.1891   19.1891   19.5234   19.5234   20.2291   20.2291   20.2549   20.2549   20.4371   20.4371
   21.2088   21.2088   21.9215   21.9215   22.2852   22.2852   22.4303   22.4303   23.0993   23.0993
   23.2422   23.2422   23.8330   23.8330   23.9379   23.9379   24.1557   24.1557   25.0200   25.0200
   25.2231   25.2231   25.7718   25.7718   26.2962   26.2962   27.2888   27.2888   28.4510   28.4510
   29.1789   29.1789   29.5447   29.5447   29.8697   29.8697   30.0900   30.0900   30.2069   30.2069
   30.6245   30.6245   30.7933   30.7933   30.9290   30.9290   31.1623   31.1623   31.4534   31.4534
   31.5696   31.5696   31.8302   31.8302   32.6864   32.6864   33.2102   33.2102   33.7442   33.7442
   34.1112   34.1112   34.4492   34.4492   34.6411   34.6411   34.8356   34.8356   35.4237   35.4237
   35.5686   35.5686   35.7846   35.7846   35.8900   35.8900   37.0333   37.0333   37.5564   37.5564
   38.1713   38.1713   38.4071   38.4071   38.5551   38.5551   39.0158   39.0158   39.1113   39.1113
   39.4393   39.4393   39.7504   39.7504   40.5840   40.5840   40.8351   40.8351   41.0889   41.0889
   41.4457   41.4457   41.4619   41.4619   41.6865   41.6865   41.7413   41.7413   42.7262   42.7262
   43.2822   43.2822   43.4544   43.4544   43.6619   43.6619   44.0057   44.0057   44.3261   44.3261
   44.6587   44.6587   44.7784   44.7784   45.0533   45.0533   45.2022   45.2022   45.2693   45.2693
   45.8261   45.8261   46.7309   46.7309   47.1318   47.1318   47.6579   47.6579   48.1185   48.1185
   48.3357   48.3357   49.6432   49.6432   50.0922   50.0922   50.1254   50.1254   50.3646   50.3646
   50.7781   50.7781   51.2136   51.2136   51.5080   51.5080   52.2811   52.2811   52.5417   52.5417
   53.2722   53.2722   53.4133   53.4133   54.5704   54.5704   55.4093   55.4093   55.6443   55.6443
   55.7328   55.7328   55.8534   55.8534   56.0204   56.0204   57.4376   57.4376   57.6819   57.6819
   58.2390   58.2390   58.6503   58.6503   58.9516   58.9516   59.9045   59.9045   61.1212   61.1212
   61.4193   61.4193   61.6989   61.6989   61.7445   61.7445   61.8580   61.8580   64.6521   64.6521
   65.3833   65.3833   65.7536   65.7536   65.8123   65.8123   65.9963   65.9963   67.2764   67.2764
   67.6883   67.6883   69.3200   69.3200   70.4403   70.4403   73.6816   73.6816   74.6623   74.6623
   75.2348   75.2348   86.2351   86.2351   92.2054   92.2054   92.5474   92.5474   93.8403   93.8403
   98.6075   98.6075   99.2617   99.2617  101.7343  101.7343  103.5813  103.5813  104.6792  104.6792
  113.1811  113.1811  115.7876  115.7876  124.6658  124.6658  127.4331  127.4331  134.3555  134.3555
  141.3252  141.3252  143.4699  143.4699
siesta: Fermi energy =      -3.782201 eV

siesta: Program's energy decomposition (eV):
siesta: Ebs     =     -1133.979185
siesta: Eions   =      3585.165840
siesta: Ena     =       381.613458
siesta: Ekin    =      2904.154863
siesta: Enl     =     -2789.255298
siesta: Eso     =        -0.004293
siesta: Edftu   =         0.000000
siesta: DEna    =        47.538461
siesta: DUscf   =        13.824170
siesta: DUext   =         0.000000
siesta: Exc     =     -1120.335844
siesta: eta*DQ  =         0.000000
siesta: Emadel  =         0.000000
siesta: Emeta   =         0.000000
siesta: Emolmec =         0.000000
siesta: Ekinion =         0.000000
siesta: Eharris =     -4147.630322
siesta: Etot    =     -4147.630322
siesta: FreeEng =     -4147.630322

siesta: Final energy (eV):
siesta:  Band Struct. =   -1133.979185
siesta:       Kinetic =    2904.154863
siesta:       Hartree =    8766.164374
siesta:       Edftu   =       0.000000
siesta:       Eso     =      -0.004293
siesta:    Ext. field =       0.000000
siesta:   Exch.-corr. =   -1120.335844
siesta:  Ion-electron =  -20116.081885
siesta:       Ion-ion =    5418.472463
siesta:       Ekinion =       0.000000
siesta:         Total =   -4147.630322
siesta:         Fermi =      -3.782201

siesta: Atomic forces (eV/Ang):
siesta:      1    0.067477    0.037602   -0.000000
siesta:      2   -0.181539    0.114475   -0.000000
siesta:      3    0.179351   -0.020057    0.000000
siesta:      4   -0.066206    0.101961   -0.000000
siesta:      5   -0.093118   -0.092811    0.000000
siesta:      6    0.064336    0.027160   -0.000000
siesta:      7    0.564703    0.382551    0.000000
siesta:      8    0.675326   -1.494720   -0.000000
siesta:      9   -0.714139    0.817092   -0.000000
siesta:     10    0.086791   -0.156761    0.000000
siesta:     11   -0.343885   -0.182829   -0.000000
siesta:     12    0.463201   -0.146470    0.000000
siesta:     13   -0.493992   -4.786257    0.000000
siesta:     14   -0.021510    0.070871    0.000000
siesta:     15    0.045559    0.023083   -0.000000
siesta:     16    0.008466   -0.004141   -0.000000
siesta:     17   -0.072903    0.002518   -0.000000
siesta:     18   -0.009802    0.022970    0.000000
siesta:     19    0.111915    0.010424    0.000000
siesta:     20   -0.606544   -0.017883    0.000000
siesta:     21   -2.398191    2.816551   -0.000000
siesta:     22    0.055127    0.371624   -0.000000
siesta:     23    0.164040   -0.347095    0.000000
siesta:     24   -0.176476   -0.341481    0.000000
siesta:     25   -0.397105    0.971671   -0.000000
siesta:     26    0.370558   -0.532689    0.000000
siesta:     27   -0.154508    0.005086   -0.000000
siesta:     28    0.008951    0.307387    0.000000
siesta:     29   -0.130863   -0.163964   -0.000000
siesta: ----------------------------------------
siesta:    Tot   -2.994980   -2.204132    0.000000

siesta: Stress tensor (static) (eV/Ang**3):
siesta:     0.000934   -0.000795   -0.000000
siesta:    -0.000795    0.000667    0.000000
siesta:     0.000000   -0.000000   -0.000064

siesta: Cell volume =       4497.635270 Ang**3

siesta: Pressure (static):
siesta:                Solid            Molecule  Units
siesta:          -0.00000558          0.00001280  Ry/Bohr**3
siesta:          -0.00051259          0.00117557  eV/Ang**3
siesta:          -0.82127631          1.88348509  kBar
(Free)E+ p_basis*V_orbitals  =       -4127.779905
(Free)Eharris+ p_basis*V_orbitals  =       -4127.779905
     spin moment: S , {S} =    0.00000   0.00000  -0.00000  -0.00000

siesta: Electric dipole (a.u.)  =   -0.067981    1.598169   -0.000000
siesta: Electric dipole (Debye) =   -0.172790    4.062144   -0.000000

cite: Please see "GC.bib" for an exhaustive BiBTeX file.
cite: Please clearly indicate Siesta version in published work: v4.1.5-1-g384057250
cite: This calculation has made use of the following articles
cite: which are encouraged to be cited in a published work.
        Primary SIESTA paper
          DOI: www.doi.org/10.1088/0953-8984/14/11/302
        Spin-orbit coupling (on-site approximation)
          DOI: www.doi.org/10.1088/0953-8984/19/19/489001

WARNING: alloc-realloc-dealloc name mismatch
         Name: atomlist isa
         Node:     0
         Subsequent mismatches will not be reported
>> End of run:  16-OCT-2023  18:24:43
Job completed