>> Start of run:  19-FEB-2022  20:02:36

reinit: Reading from standard input
reinit: Dumped input in INPUT_TMP.77025
************************** Dump of input data file ****************************
# Created by GDIS version 0.90.0
#
SystemLabel      C
NumberOfAtoms    13
NumberOfSpecies  4
%block ChemicalSpeciesLabel
    1    1  H
    2    7  N
    3   14  Si
    4    8  O
%endblock ChemicalSpeciesLabel
AtomicCoordinatesFormat NotScaledCartesianAng
%block AtomicCoordinatesAndAtomicSpecies
    1.07571200    3.82916874    0.00000000   1       1  H
    0.45886177    2.96529489   -0.00000000   2       2  N
   -1.29350027    3.24938905    0.00000000   3       3  Si
   -1.65166164    4.70451468   -0.00000000   1       4  H
   -2.72508540    1.60321315   -0.00000000   3       5  Si
   -4.21691642    1.74148542    0.00000000   1       6  H
   -1.33000544   -0.14636172    0.00000000   3       7  Si
   -2.01380705   -1.75466429    0.00000000   2       8  N
   -1.40609867   -2.61295866   -0.00000000   1       9  H
   -3.05571330   -1.91711525    0.00000000   1      10  H
    0.35466701   -0.01492098   -0.00000000   2      11  N
    1.38085443    1.37498623    0.00000000   3      12  Si
    2.97283730    1.48016461   -0.00000000   4      13  O
%endblock AtomicCoordinatesAndAtomicSpecies
%include ../defaults.fdf
************************** End of input data file *****************************

reinit: -----------------------------------------------------------------------
reinit: System Name:
reinit: -----------------------------------------------------------------------
reinit: System Label: C
reinit: -----------------------------------------------------------------------

initatom: Reading input for the pseudopotentials and atomic orbitals ----------
Species number:   1 Atomic number:    1 Label: H
Species number:   2 Atomic number:    7 Label: N
Species number:   3 Atomic number:   14 Label: Si
Species number:   4 Atomic number:    8 Label: O

Ground state valence configuration:   1s01
Reading pseudopotential information in formatted form from H.psf

Pseudopotential generated from a relativistic atomic calculation

Valence configuration for pseudopotential generation:
1s( 1.00) rc: 0.01
2p( 0.00) rc: 0.60
3d( 0.00) rc: 1.99
4f( 0.00) rc: 2.49
Ground state valence configuration:   2s02  2p03
Reading pseudopotential information in formatted form from N.psf

[...]

Valence configuration for pseudopotential generation:
3s( 2.00) rc: 1.67
3p( 2.00) rc: 2.04
3d( 0.00) rc: 2.89
4f( 0.00) rc: 0.25
Ground state valence configuration:   2s02  2p04
Reading pseudopotential information in formatted form from O.psf

Pseudopotential generated from a relativistic atomic calculation

Valence configuration for pseudopotential generation:
2s( 2.00) rc: 0.45
2p( 4.00) rc: 0.92
3d( 0.00) rc: 2.24
4f( 0.00) rc: 0.25
For H, standard SIESTA heuristics set lmxkb to 2
 (one more than the basis l, including polarization orbitals).
Use PS.lmax or PS.KBprojectors blocks to override.
For N, standard SIESTA heuristics set lmxkb to 3
 (one more than the basis l, including polarization orbitals).
Use PS.lmax or PS.KBprojectors blocks to override.
For Si, standard SIESTA heuristics set lmxkb to 3
 (one more than the basis l, including polarization orbitals).
Use PS.lmax or PS.KBprojectors blocks to override.
For O, standard SIESTA heuristics set lmxkb to 3
 (one more than the basis l, including polarization orbitals).
Use PS.lmax or PS.KBprojectors blocks to override.

<basis_specs>
H                    Z=   1    Mass=  1.0100        Charge= 0.17977+309
Lmxo=0 Lmxkb= 2    BasisType=split      Semic=F
L=0  Nsemic=0  Cnfigmx=1
          i=1  nzeta=2  polorb=1  (1s)
            splnorm:   0.62000
               vcte:    0.0000
               rinn:    0.0000
               qcoe:    0.0000
               qyuk:    0.0000
               qwid:   0.10000E-01
                rcs:    0.0000      0.0000
            lambdas:    1.0000      1.0000
L=0  Nkbl=1  erefs: 0.17977+309
L=1  Nkbl=1  erefs: 0.17977+309
L=2  Nkbl=1  erefs: 0.17977+309
</basis_specs>

atom: Called for H                     (Z =   1)

read_vps: Pseudopotential generation method:
read_vps: ATM4.2.7  Troullier-Martins
Valence charge for ps generation:    1.00000

xc_check: Exchange-correlation functional:
xc_check: GGA Perdew, Burke & Ernzerhof 1996
V l=0 = -2*Zval/r beyond r=  0.0098
V l=1 = -2*Zval/r beyond r=  0.5817
V l=2 = -2*Zval/r beyond r=  1.9372
All V_l potentials equal beyond r=  1.9372
This should be close to max(r_c) in ps generation
All pots = -2*Zval/r beyond r=  1.9372

VLOCAL1: 99.0% of the norm of Vloc inside     11.567 Ry
VLOCAL1: 99.9% of the norm of Vloc inside     26.362 Ry
atom: Maximum radius for 4*pi*r*r*local-pseudopot. charge    2.25106
atom: Maximum radius for r*vlocal+2*Zval:    1.91306
GHOST: No ghost state for L =  0
GHOST: No ghost state for L =  1
GHOST: No ghost state for L =  2

KBgen: Kleinman-Bylander projectors:
   l= 0   rc=  2.036604   el= -0.477180   Ekb= -6.081590   kbcos= -0.277285
   l= 1   rc=  2.195416   el=  0.001076   Ekb= -0.926943   kbcos= -0.034643
   l= 2   rc=  2.251056   el=  0.002010   Ekb= -0.130941   kbcos= -0.009788

KBgen: Total number of Kleinman-Bylander projectors:    9
atom: -------------------------------------------------------------------------

atom: SANKEY-TYPE ORBITALS:
atom: Selected multiple-zeta basis: split

SPLIT: Orbitals with angular momentum L= 0

SPLIT: Basis orbitals for state 1s

SPLIT: PAO cut-off radius determined from an
SPLIT: energy shift=  0.002000 Ry

   izeta = 1
                 lambda =    1.000000
                     rc =    6.518340
                 energy =   -0.475305
                kinetic =    0.912139
    potential(screened) =   -1.387444
       potential(ionic) =   -1.907295

   izeta = 2
                 rmatch =    2.141150
              splitnorm =    0.620000
                 energy =    0.566467
                kinetic =    3.772856
    potential(screened) =   -3.206389
       potential(ionic) =   -3.759093

POLgen: Perturbative polarization orbital with L=  1

POLgen: Polarization orbital for state 1s

   izeta = 1
                     rc =    6.518340
                 energy =    0.533861
                kinetic =    1.121086
    potential(screened) =   -0.587225
       potential(ionic) =   -1.053027
atom: Total number of Sankey-type orbitals:  5

atm_pop: Valence configuration (for local Pseudopot. screening):
 1s( 1.00)
Vna: chval, zval:    1.00000   1.00000

Vna:  Cut-off radius for the neutral-atom potential:   6.518340

atom: _________________________________________________________________________

<basis_specs>
N                    Z=   7    Mass=  14.010        Charge= 0.17977+309
Lmxo=1 Lmxkb= 3    BasisType=split      Semic=F
L=0  Nsemic=0  Cnfigmx=2
          i=1  nzeta=2  polorb=0  (2s)
            splnorm:   0.28000
               vcte:    0.0000
               rinn:    0.0000
               qcoe:    0.0000
               qyuk:    0.0000
               qwid:   0.10000E-01
                rcs:    0.0000      0.0000
            lambdas:    1.0000      1.0000
L=1  Nsemic=0  Cnfigmx=2
          i=1  nzeta=2  polorb=1  (2p)
            splnorm:   0.28000
               vcte:    0.0000
               rinn:    0.0000
               qcoe:    0.0000
               qyuk:    0.0000
               qwid:   0.10000E-01
                rcs:    0.0000      0.0000
            lambdas:    1.0000      1.0000
L=0  Nkbl=1  erefs: 0.17977+309
L=1  Nkbl=1  erefs: 0.17977+309
L=2  Nkbl=1  erefs: 0.17977+309
L=3  Nkbl=1  erefs: 0.17977+309
</basis_specs>

[...]

KBgen: Kleinman-Bylander projectors:
   l= 0   rc=  3.417763   el= -1.365098   Ekb= -4.433130   kbcos= -0.707855
   l= 1   rc=  3.375302   el= -0.521201   Ekb=-13.264039   kbcos= -0.535594
   l= 2   rc=  3.872880   el=  0.001991   Ekb= -0.641094   kbcos= -0.062456
   l= 3   rc=  3.970931   el=  0.003093   Ekb= -0.474517   kbcos= -0.018236

[...]

SPLIT: Basis orbitals for state 2p

[...]

POLgen: Polarization orbital for state 2p

[...]

atm_pop: Valence configuration (for local Pseudopot. screening):
 2s( 2.00)
 2p( 3.00)
Vna: chval, zval:    5.00000   5.00000

[...]

KBgen: Kleinman-Bylander projectors:
   l= 0   rc=  3.075247   el= -0.794092   Ekb=  5.879390   kbcos=  0.167461
   l= 1   rc=  3.153101   el= -0.300068   Ekb=  2.642817   kbcos=  0.058301
   l= 2   rc=  3.273594   el=  0.001958   Ekb= -1.185135   kbcos= -0.104411
   l= 3   rc=  3.232927   el=  0.003046   Ekb= -1.061051   kbcos= -0.011037

[...]

<basis_specs>
O                    Z=   8    Mass=  16.000        Charge= 0.17977+309
Lmxo=1 Lmxkb= 3    BasisType=split      Semic=F
L=0  Nsemic=0  Cnfigmx=2
          i=1  nzeta=2  polorb=0  (2s)
            splnorm:   0.28000
               vcte:    0.0000
               rinn:    0.0000
               qcoe:    0.0000
               qyuk:    0.0000
               qwid:   0.10000E-01
                rcs:    0.0000      0.0000
            lambdas:    1.0000      1.0000
L=1  Nsemic=0  Cnfigmx=2
          i=1  nzeta=2  polorb=1  (2p)
            splnorm:   0.28000
               vcte:    0.0000
               rinn:    0.0000
               qcoe:    0.0000
               qyuk:    0.0000
               qwid:   0.10000E-01
                rcs:    0.0000      0.0000
            lambdas:    1.0000      1.0000
L=0  Nkbl=1  erefs: 0.17977+309
L=1  Nkbl=1  erefs: 0.17977+309
L=2  Nkbl=1  erefs: 0.17977+309
L=3  Nkbl=1  erefs: 0.17977+309
</basis_specs>

atom: Called for O                     (Z =   8)

read_vps: Pseudopotential generation method:
read_vps: ATM4.2.7  Troullier-Martins
Valence charge for ps generation:    6.00000

xc_check: Exchange-correlation functional:
xc_check: GGA Perdew, Burke & Ernzerhof 1996
V l=0 = -2*Zval/r beyond r=  1.1000
V l=1 = -2*Zval/r beyond r=  1.1000
V l=2 = -2*Zval/r beyond r=  2.2154
V l=3 = -2*Zval/r beyond r=  1.1000
All V_l potentials equal beyond r=  2.2154
This should be close to max(r_c) in ps generation
All pots = -2*Zval/r beyond r=  2.2154

VLOCAL1: 99.0% of the norm of Vloc inside      8.845 Ry
VLOCAL1: 99.9% of the norm of Vloc inside     20.157 Ry
atom: Maximum radius for 4*pi*r*r*local-pseudopot. charge    2.67231
atom: Maximum radius for r*vlocal+2*Zval:    2.32897
GHOST: No ghost state for L =  0
GHOST: No ghost state for L =  1
GHOST: No ghost state for L =  2
GHOST: No ghost state for L =  3

KBgen: Kleinman-Bylander projectors:
   l= 0   rc=  2.243238   el= -1.759686   Ekb=**********   kbcos= -0.171774
   l= 1   rc=  2.328968   el= -0.663873   Ekb=-14.506792   kbcos= -0.519897
   l= 2   rc=  2.573941   el=  0.002031   Ekb= -1.137373   kbcos= -0.019581
   l= 3   rc=  2.606321   el=  0.003153   Ekb= -1.013546   kbcos= -0.003122

KBgen: Total number of Kleinman-Bylander projectors:   16
atom: -------------------------------------------------------------------------

atom: SANKEY-TYPE ORBITALS:
atom: Selected multiple-zeta basis: split

[...]

SPLIT: Basis orbitals for state 2s

[...]

SPLIT: Orbitals with angular momentum L= 1

SPLIT: Basis orbitals for state 2p

SPLIT: PAO cut-off radius determined from an
SPLIT: energy shift=  0.002000 Ry

   izeta = 1
[...]
     spin moment: S , {S} =    0.00000       0.0       0.0   0.00000

[...]

cgvc: Finished line minimization   49.  Mean atomic displacement =    0.0003

[...]

        iscf     Eharris(eV)        E_KS(eV)     FreeEng(eV)     dDmax    Ef(eV) dHmax(eV)
   scf:    1    -1750.377601    -1750.376636    -1750.376636  0.000119 -4.301142  0.004420
     spin moment: S , {S} =    0.00000       0.0       0.0   0.00000
   scf:    2    -1750.376601    -1750.376626    -1750.376626  0.000233 -4.303269  0.013673
     spin moment: S , {S} =   -0.00000       0.0       0.0  -0.00000
   scf:    3    -1750.376640    -1750.376637    -1750.376637  0.000179 -4.301755  0.000856
     spin moment: S , {S} =    0.00000       0.0       0.0   0.00000
   scf:    4    -1750.376637    -1750.376637    -1750.376637  0.000005 -4.301828  0.000339
     spin moment: S , {S} =    0.00000       0.0       0.0   0.00000

[...]

                        Begin CG opt. move =    122

outcoor: Atomic coordinates (Ang):
    1.15797915    3.73417393   -0.00000000   1       1  H
    0.51814768    2.88633371   -0.00000002   2       2  N
   -1.22494650    3.21794689    0.00000087   3       3  Si
   -1.48813407    4.69368331    0.00000000   1       4  H
   -2.72427138    1.62194558   -0.00000376   3       5  Si
   -4.21498983    1.82461643    0.00000004   1       6  H
   -1.37627357   -0.17191916    0.00000039   3       7  Si
   -2.03134801   -1.78954039    0.00000021   2       8  N
   -1.39816633   -2.62851474    0.00000001   1       9  H
   -3.05955112   -1.99889091    0.00000000   1      10  H
    0.30806108   -0.07702101    0.00000003   2      11  N
    1.38192846    1.26919989    0.00000006   3      12  Si
    2.97362922    1.30372451   -0.00000004   4      13  O

outcell: Unit cell vectors (Ang):
       14.879181    0.000000    0.000000
        0.000000   15.637803    0.000000
        0.000000    0.000000    9.854683

outcell: Cell vector modules (Ang)   :   14.879181   15.637803    9.854683
outcell: Cell angles (23,13,12) (deg):     90.0000     90.0000     90.0000
outcell: Cell volume (Ang**3)        :   2292.9651
<dSpData1D:S at geom step 122
  <sparsity:sparsity for geom step 122
    nrows_g=129 nrows=5 sparsity=.0379 nnzs=631, refcount: 7>
  <dData1D:(new from dSpData1D) n=631, refcount: 1>
refcount: 1>
new_DM -- step:   123
Re-using DM from previous geometries...
Number of DMs in history: 1
 DM extrapolation coefficients:
1   1.00000
New DM after history re-use:
<dSpData2D:SpM extrapolated using coords
  <sparsity:sparsity for geom step 122
    nrows_g=129 nrows=5 sparsity=.0379 nnzs=631, refcount: 9>
  <dData2D:(temp array for extrapolation) n=631 m=2, refcount: 1>
refcount: 1>
     spin moment: S , {S} =    0.00000       0.0       0.0   0.00000
No. of atoms with KB's overlaping orbs in proc 0. Max # of overlaps:       9     125
New grid distribution:   1
           1       1:   90    1:   23    1:    8
           2       1:   90    1:   23    9:   16
           3       1:   90    1:   23   17:   24
           4       1:   90    1:   23   25:   32
           5       1:   90    1:   23   33:   39
           6       1:   90    1:   23   40:   46
           7       1:   90    1:   23   47:   53
           8       1:   90    1:   23   54:   60
           9       1:   90   24:   46    1:    8
          10       1:   90   24:   46    9:   16
          11       1:   90   24:   46   17:   24
          12       1:   90   24:   46   25:   32
          13       1:   90   24:   46   33:   39
          14       1:   90   24:   46   40:   46
          15       1:   90   24:   46   47:   53
          16       1:   90   24:   46   54:   60
          17       1:   90   47:   68    1:    8
          18       1:   90   47:   68    9:   16
          19       1:   90   47:   68   17:   24
          20       1:   90   47:   68   25:   32
          21       1:   90   47:   68   33:   39
          22       1:   90   47:   68   40:   46
          23       1:   90   47:   68   47:   53
          24       1:   90   47:   68   54:   60
          25       1:   90   69:   90    1:    8
          26       1:   90   69:   90    9:   16
          27       1:   90   69:   90   17:   24
          28       1:   90   69:   90   25:   32
          29       1:   90   69:   90   33:   39
          30       1:   90   69:   90   40:   46
          31       1:   90   69:   90   47:   53
          32       1:   90   69:   90   54:   60

InitMesh: MESH =   180 x   180 x   120 =     3888000
InitMesh: (bp) =    90 x    90 x    60 =      486000
InitMesh: Mesh cutoff (required, used) =   340.000   366.180 Ry
ExtMesh (bp) on 0 =   202 x   127 x   120 =     3078480
New grid distribution:   2
           1      10:   68    1:    9    1:   20
           2      69:   81    1:    8    1:   23
           3      69:   81    1:    8   24:   60
           4      10:   68    1:    9   21:   60
           5      16:   73   73:   90    1:   20
           6      83:   90   18:   76    1:   20
           7      69:   82    9:   17   24:   60
           8      83:   90    9:   17   24:   60
           9       1:   11   18:   72    1:   20
          10       1:    9    1:    9   21:   60
          11      83:   90   77:   90    1:   20
          12      12:   73   18:   72   21:   60
          13       1:   11   18:   72   21:   60
          14      10:   68   10:   17    1:   20
          15      69:   82    9:   17    1:   23
          16      82:   90    1:    8    1:   23
          17      12:   73   18:   72    1:   20
          18       1:    9   10:   17   21:   60
          19      83:   90    9:   17    1:   23
          20      83:   90   18:   76   21:   60
          21      74:   82   18:   76   21:   60
          22       1:   15   73:   90    1:   20
          23      82:   90    1:    8   24:   60
          24       1:    9    1:    9    1:   20
          25      74:   82   18:   76    1:   20
          26      74:   82   77:   90    1:   20
          27      83:   90   77:   90   21:   60
          28      16:   73   73:   90   21:   60
          29      10:   68   10:   17   21:   60
          30       1:   15   73:   90   21:   60
          31      74:   82   77:   90   21:   60
          32       1:    9   10:   17    1:   20
New grid distribution:   3
           1      17:   56   13:   27    1:   26
           2      20:   56    1:   12    1:   26
           3       1:   20   77:   90    1:   23
           4       1:   16   13:   27   27:   60
           5      17:   56   13:   27   27:   60
           6      19:   56    1:   12   27:   60
           7      57:   74   14:   27   28:   60
           8      57:   74    1:   13    1:   27
           9      14:   67   28:   76    1:   23
          10      68:   79   28:   68    1:   25
          11      57:   74    1:   13   28:   60
          12       1:   16   13:   27    1:   26
          13      68:   79   28:   69   26:   60
          14      80:   90   28:   68    1:   25
          15      75:   90   14:   27   28:   60
          16      80:   90   69:   90    1:   25
          17       1:   13   28:   76    1:   23
          18       1:   18    1:   12   27:   60
          19      75:   90   14:   27    1:   27
          20      14:   67   28:   77   24:   60
          21       1:   13   28:   77   24:   60
          22      68:   79   70:   90   26:   60
          23      75:   90    1:   13   28:   60
          24       1:   19    1:   12    1:   26
          25      21:   67   77:   90    1:   23
          26      57:   74   14:   27    1:   27
          27      68:   79   69:   90    1:   25
          28      20:   67   78:   90   24:   60
          29      80:   90   28:   69   26:   60
          30       1:   19   78:   90   24:   60
          31      80:   90   70:   90   26:   60
          32      75:   90    1:   13    1:   27
Setting up quadratic distribution...
ExtMesh (bp) on 0 =   171 x   113 x   132 =     2550636
PhiOnMesh: Number of (b)points on node 0 =                10620
PhiOnMesh: nlist on node 0 =               184117

        iscf     Eharris(eV)        E_KS(eV)     FreeEng(eV)     dDmax    Ef(eV) dHmax(eV)
   scf:    1    -1750.376235    -1750.376638    -1750.376638  0.000053 -4.302021  0.001905
     spin moment: S , {S} =   -0.00000       0.0       0.0  -0.00000
   scf:    2    -1750.376632    -1750.376636    -1750.376636  0.000098 -4.301151  0.005831
     spin moment: S , {S} =   -0.00000       0.0       0.0  -0.00000
   scf:    3    -1750.376639    -1750.376638    -1750.376638  0.000076 -4.301763  0.000408
     spin moment: S , {S} =    0.00000       0.0       0.0   0.00000

SCF Convergence by DM+H criterion
max |DM_out - DM_in|         :     0.0000758667
max |H_out - H_in|      (eV) :     0.0004075993
SCF cycle converged after 3 iterations

Using DM_out to compute the final energy and forces
No. of atoms with KB's overlaping orbs in proc 0. Max # of overlaps:       9     125

siesta: E_KS(eV) =            -1750.3766
     spin moment: S , {S} =    0.00000       0.0       0.0   0.00000

siesta: Atomic forces (eV/Ang):
     1   -0.004440   -0.003816   -0.000000
     2    0.001699    0.000296    0.000000
     3    0.000558    0.001847    0.000001
     4    0.001780   -0.001877   -0.000000
     5   -0.000852    0.000937   -0.000006
     6   -0.000959   -0.003297    0.000000
     7   -0.000295    0.003634    0.000001
     8   -0.003067    0.000318    0.000000
     9    0.001399    0.000526    0.000000
    10    0.002677    0.000753    0.000000
    11    0.001819   -0.001371    0.000000
    12    0.000509   -0.001885    0.000000
    13   -0.000773   -0.002709    0.000005
   Tot    0.000052   -0.006644    0.000002
   Max    0.004440
   Res    0.001685    sqrt( Sum f_i^2 / 3N )
   Max    0.004440    constrained

Stress tensor Voigt[x,y,z,yz,xz,xy] (kbar):        0.06       -0.66       -0.14       -0.00        0.00       -0.15
(Free)E + p*V (eV/cell)    -1750.0266
Target enthalpy (eV/cell)    -1750.3766

mulliken: Atomic and Orbital Populations:

mulliken: Spin UP

[...]

mulliken: Spin DOWN

Species: H
Atom  Qatom  Qorb
   1  0.381   0.245   0.094   0.012   0.018   0.012
   4  0.599   0.523   0.044   0.018   0.009   0.006
   6  0.607   0.529   0.037   0.009   0.015   0.017
   9  0.379   0.238   0.099   0.015   0.024   0.003
  10  0.382   0.239   0.099   0.008   0.026   0.010

[...]

Species: O
Atom  Qatom  Qorb
               3Pdxy   3Pdyz   3Pdz2   3Pdxz   3Pdx2-y2
  13  3.237   0.870   0.036   0.817   0.768   0.701   0.008   0.000   0.024
              0.004  -0.000   0.001   0.005   0.004

mulliken: Qtot =       21.000

outcoor: Relaxed atomic coordinates (Ang):
    1.15797915    3.73417393   -0.00000000   1       1  H
    0.51814768    2.88633371   -0.00000002   2       2  N
   -1.22494650    3.21794689    0.00000087   3       3  Si
   -1.48813407    4.69368331    0.00000000   1       4  H
   -2.72427138    1.62194558   -0.00000376   3       5  Si
   -4.21498983    1.82461643    0.00000004   1       6  H
   -1.37627357   -0.17191916    0.00000039   3       7  Si
   -2.03134801   -1.78954039    0.00000021   2       8  N
   -1.39816633   -2.62851474    0.00000001   1       9  H
   -3.05955112   -1.99889091    0.00000000   1      10  H
    0.30806108   -0.07702101    0.00000003   2      11  N
    1.38192846    1.26919989    0.00000006   3      12  Si
    2.97362922    1.30372451   -0.00000004   4      13  O

coxmol: Writing XMOL coordinates into file C.xyz

siesta: Eigenvalues (eV):
  ik is       eps
   1  1  -21.9123  -21.5575  -21.0396  -19.4104  -14.6939  -13.2503  -12.8322  -12.4086  -11.9482  -10.7431
         -10.0365   -9.5578   -8.4780   -8.3495   -7.6919   -7.6795   -6.7386   -6.4681   -6.1330   -5.8549
   -5.4306   -3.1184   -2.2563   -1.7489   -1.7131   -1.5811   -0.9719   -0.1770    0.3238    0.7686
    1.2223    1.3913    1.5281    2.0311    2.2426    2.9688    3.2176    3.4830    4.1530    4.3375
    4.4704    4.6387    4.9707    5.5578    5.8742    5.9433    6.2207    6.6492    6.7567    7.1873
    7.8686    7.9754    8.1884    8.3796    8.9702    9.2621    9.7287    9.8146   10.2995   10.9706
   10.9847   11.8830   12.0965   12.7922   12.9045   13.4763   13.9648   14.2120   15.0215   15.2350
   16.9063   17.6888   18.0119   19.2544   20.2764   21.0099   21.6120   22.3938   22.8779   24.1686
   24.7879   25.9535   28.6531   29.4707   30.2586   30.9512   31.3460   31.4749   31.7152   32.4608
   34.5793   35.0294   35.0977   36.1294   37.2243   38.0322   39.2438   39.8663   40.7533   41.3557
   42.7826   43.1185   43.6413   44.2451   44.8770   46.6282   49.1832   50.7974   51.2271   51.7479
   52.7804   54.9819   55.2447   55.3167   55.9016   56.5528   58.9308   60.5994   61.5505   62.1382
   66.7288   67.8935   81.1431   91.1942   98.9583   99.2176  111.6478  126.0963  140.0687
   1  2  -21.9123  -21.5575  -21.0396  -19.4104  -14.6939  -13.2503  -12.8322  -12.4086  -11.9482  -10.7431
         -10.0365   -9.5578   -8.4780   -8.3495   -7.6919   -7.6795   -6.7386   -6.4681   -6.1330   -5.8549
   -5.4306   -3.1184   -2.2563   -1.7489   -1.7131   -1.5811   -0.9719   -0.1770    0.3238    0.7686
    1.2223    1.3913    1.5281    2.0311    2.2426    2.9688    3.2176    3.4830    4.1530    4.3375
    4.4704    4.6387    4.9707    5.5578    5.8742    5.9433    6.2207    6.6492    6.7567    7.1873
    7.8686    7.9754    8.1884    8.3796    8.9702    9.2621    9.7287    9.8146   10.2995   10.9706
   10.9847   11.8830   12.0965   12.7922   12.9045   13.4763   13.9648   14.2120   15.0215   15.2350
   16.9063   17.6888   18.0119   19.2544   20.2764   21.0099   21.6120   22.3938   22.8779   24.1686
   24.7879   25.9535   28.6531   29.4707   30.2586   30.9512   31.3460   31.4749   31.7152   32.4608
   34.5793   35.0294   35.0977   36.1294   37.2243   38.0322   39.2438   39.8663   40.7533   41.3557
   42.7826   43.1185   43.6413   44.2451   44.8770   46.6282   49.1832   50.7974   51.2271   51.7479
   52.7804   54.9819   55.2447   55.3167   55.9016   56.5528   58.9308   60.5994   61.5505   62.1382
   66.7288   67.8935   81.1431   91.1942   98.9583   99.2176  111.6478  126.0963  140.0687
siesta: Fermi energy =      -4.301763 eV

siesta: Program's energy decomposition (eV):
siesta: Ebs     =      -484.427393
siesta: Eions   =      1544.210757
siesta: Ena     =       161.509385
siesta: Ekin    =      1228.152808
siesta: Enl     =     -1143.139156
siesta: Eso     =         0.000000
siesta: Edftu   =         0.000000
siesta: DEna    =        16.776934
siesta: DUscf   =         6.346322
siesta: DUext   =         0.000000
siesta: Exc     =      -475.812174
siesta: eta*DQ  =         0.000000
siesta: Emadel  =         0.000000
siesta: Emeta   =         0.000000
siesta: Emolmec =         0.000000
siesta: Ekinion =         0.000000
siesta: Eharris =     -1750.376639
siesta: Etot    =     -1750.376638
siesta: FreeEng =     -1750.376638

siesta: Final energy (eV):
siesta:  Band Struct. =    -484.427393
siesta:       Kinetic =    1228.152808
siesta:       Hartree =    2740.031677
siesta:       Edftu   =       0.000000
siesta:       Eso     =       0.000000
siesta:    Ext. field =       0.000000
siesta:   Exch.-corr. =    -475.812174
siesta:  Ion-electron =   -6575.146608
siesta:       Ion-ion =    1332.397659
siesta:       Ekinion =       0.000000
siesta:         Total =   -1750.376638
siesta:         Fermi =      -4.301763

siesta: Stress tensor (static) (eV/Ang**3):
siesta:     0.000039   -0.000094   -0.000000
siesta:    -0.000094   -0.000412   -0.000000
siesta:     0.000000   -0.000000   -0.000085

siesta: Cell volume =       2292.965119 Ang**3

siesta: Pressure (static):
siesta:                Solid            Molecule  Units
siesta:           0.00000166          0.00000171  Ry/Bohr**3
siesta:           0.00015265          0.00015690  eV/Ang**3
siesta:           0.24456749          0.25138861  kBar
(Free)E+ p_basis*V_orbitals  =       -1741.515896
(Free)Eharris+ p_basis*V_orbitals  =       -1741.515897
     spin moment: S , {S} =    0.00000       0.0       0.0   0.00000

siesta: Electric dipole (a.u.)  =   -3.107731    0.190776    0.000001
siesta: Electric dipole (Debye) =   -7.899069    0.484904    0.000002

cite: Please see "C.bib" for an exhaustive BiBTeX file.
cite: Please clearly indicate Siesta version in published work: v4.1.5-1-g384057250
cite: This calculation has made use of the following articles
cite: which are encouraged to be cited in a published work.
        Primary SIESTA paper
          DOI: www.doi.org/10.1088/0953-8984/14/11/302

WARNING: alloc-realloc-dealloc name mismatch
         Name: atomlist isa
         Node:     0
         Subsequent mismatches will not be reported
>> End of run:  19-FEB-2022  20:14:20
Job completed