 NOTE: Siesta V5 introduces some new defaults for basis-set generation
 NOTE: which might lead to slightly different numerical results.
 NOTE: Please see the manual for full details and compatibility measures.

reinit: Reading from standard input
reinit: Dumping input in INPUT_TMP.60735
************************** Dump of input data file ****************************
# mpirun -np 8 siesta-5 < Cytosine.fdf > Cytosine.out
SystemLabel      Cytosine
NumberOfAtoms    13
NumberOfSpecies  4
%block ChemicalSpeciesLabel
    1    1  H ../../../Pseudos/VW/H/H.psf
    2    7  N ../../../Pseudos/VW/N/N.psf
    3    14 Si ../../../Pseudos/VW/Si/Si.psf
    4    8  O ../../../Pseudos/VW/O/O.psf
%endblock ChemicalSpeciesLabel
# This overrides Defaults.fdf conf
XC.Functional               VDW
XC.Authors                  DRSLL
MD.Steps                    1000
%block Geometry.Constraints
    atom all 0.0 0.0 1.0 # constrain along z Cartesian vector
    atom [5]
%endblock
AtomicCoordinatesFormat NotScaledCartesianAng
%block AtomicCoordinatesAndAtomicSpecies
    0.96870821    3.54504425    0.00000000   1       1  H
    0.28711258    2.74912691    0.00000000   2       2  N
   -1.42071279    3.18910325    0.00000000   3       3  Si
   -1.56500281    4.67662439    0.00000000   1       4  H
   -2.96939626    1.65863702    0.00000000   3       5  Si
   -4.43880620    1.91429835    0.00000000   1       6  H
   -1.75395092   -0.21008586    0.00000000   3       7  Si
   -2.48388205   -1.79015748    0.00000000   2       8  N
   -1.87391688   -2.63849724    0.00000000   1       9  H
   -3.51345758   -1.96432550    0.00000000   1      10  H
   -0.08526415   -0.16264518    0.00000000   2      11  N
    1.05464802    1.10066092    0.00000000   3      12  Si
    2.63019961    1.07131432    0.00000000   4      13  O
%endblock AtomicCoordinatesAndAtomicSpecies
# Unit Cell
LatticeConstant 1.0 Ang
%block LatticeVectors
       13.908324    0.000000    0.000000
        0.000000   14.884805    0.000000
        0.000000    0.000000    8.754136
%endblock LatticeVectors
%include ../../../Defaults.fdf
************************** End of input data file *****************************

reinit: -----------------------------------------------------------------------
reinit: System Name:
reinit: -----------------------------------------------------------------------
reinit: System Label: Cytosine
reinit: -----------------------------------------------------------------------

NOTE on units for spin output:
{S} is the spin magnetic moment, in units of the Bohr magneton,
assuming a g-factor for the electron spin of exactly 2.
The spin magnetic moment is then numerically equal to the charge inbalance,
in units of electrons, between the spin-up and -down channels.

initatom: Reading input for the pseudopotentials and atomic orbitals ----------
Species number:   1 Atomic number:    1 Label: H
Species number:   2 Atomic number:    7 Label: N
Species number:   3 Atomic number:   14 Label: Si
Species number:   4 Atomic number:    8 Label: O

Ground state valence configuration (from tables):   1s01  2p00  3d00  4f00
Ground state valence configuration (from tables):   2s02  2p03  3d00  4f00
Ground state valence configuration (from tables):   3s02  3p02  3d00  4f00
Ground state valence configuration (from tables):   2s02  2p04  3d00  4f00

---- Processing specs for species: H
Reading pseudopotential information in formatted form from:
  ../../../Pseudos/VW/H/H.psf

[...]

---- Processing specs for species: O
Reading pseudopotential information in formatted form from:
  ../../../Pseudos/VW/O/O.psf

---- Pseudopotential check for H

Pseudopotential generated from a fully relativistic atomic calculation
There are spin-orbit semi-local pseudopotentials available

Pseudized shells:
1s( 1.00) rc: 0.04
Valence configuration for ps generation: (assumed as above)

[...]

Pseudized shells:
2s( 2.00) rc: 1.00
2p( 3.00) rc: 1.04
3d( 0.00) rc: 2.87
Valence configuration for ps generation: (assumed as above)

[...]

Pseudized shells:
3s( 2.00) rc: 1.67
3p( 2.00) rc: 1.99
3d( 0.00) rc: 2.04
Valence configuration for ps generation: (assumed as above)

---- Pseudopotential check for O

Pseudopotential generated from a fully relativistic atomic calculation
There are spin-orbit semi-local pseudopotentials available

Pseudized shells:
2s( 2.00) rc: 0.89
2p( 4.00) rc: 1.03
3d( 0.00) rc: 1.64
Valence configuration for ps generation: (assumed as above)
For H, standard SIESTA heuristics set lmxkb to 2
 (one more than the basis l, including polarization orbitals).
Use PS.lmax or PS.KBprojectors blocks to override.
For N, standard SIESTA heuristics set lmxkb to 3
 (one more than the basis l, including polarization orbitals).
Use PS.lmax or PS.KBprojectors blocks to override.
For Si, standard SIESTA heuristics set lmxkb to 3
 (one more than the basis l, including polarization orbitals).
Use PS.lmax or PS.KBprojectors blocks to override.
For O, standard SIESTA heuristics set lmxkb to 3
 (one more than the basis l, including polarization orbitals).
Use PS.lmax or PS.KBprojectors blocks to override.
../../../Pseudos/VW/H/H.psf pseudopotential only contains V_ls up to l=0 -- lmxkb reset.
../../../Pseudos/VW/N/N.psf pseudopotential only contains V_ls up to l=2 -- lmxkb reset.
../../../Pseudos/VW/Si/Si.psf pseudopotential only contains V_ls up to l=2 -- lmxkb reset.
../../../Pseudos/VW/O/O.psf pseudopotential only contains V_ls up to l=2 -- lmxkb reset.

<basis_specs>
H                    Z=   1    Mass=  1.0080        Charge= 0.17977+309
Lmxo=1 Lmxkb= 0    BasisType=split      Semic=F
L=0  Nsemic=0  Cnfigmx=1
          i=1  nzeta=2  polorb=1  (1s)  (to be polarized perturbatively)
            splnorm:   0.62000
               vcte:    40.000
               rinn:  -0.90000
               qcoe:    0.0000
               qyuk:    0.0000
               qwid:   0.10000E-01
                rcs:    0.0000      0.0000
            lambdas:    1.0000      1.0000
L=1  Nsemic=0  Cnfigmx=2
          i=1  nzeta=0  polorb=0  (2p)  (perturbative polarization orbital) (from 1s)
</basis_specs>

Filter: Requested cutoff:  290.000000 Ry
Using PAO.SplitTailNorm
atom: Called for H                     (Z =   1)
NOTE: H pseudopotential has channels up to l= 0
NOTE: PAOs with higher l will be generated with V_local
Maximum radius (at nrval) set to   50.00000 8518

read_vps: Pseudopotential generation method:
read_vps: ATM4.2.7  Troullier-Martins
Valence charge in pseudo generation:    1.00000

xc_check: Exchange-correlation functional:
xc_check: VDW Dion-Rydberg-Schroeder-Langreth-Lundqvist
V l=0 = -2*Zval/r beyond r=  0.0399
All V_l potentials equal beyond r=  0.0399
This should be close to max(r_c) in ps generation
All pots = -2*Zval/r beyond r=  0.0399
Using small-core scheme (local charge) for Vlocal

VLOCAL_FROM_CHLOCAL: 99.0% of the norm of Vloc inside  27227.515 Ry
VLOCAL_FROM_CHLOCAL: 99.9% of the norm of Vloc inside  62052.012 Ry
atom: Maximum radius for chlocal:    0.04942
atom: Maximum radius for r*vlocal+2*Zval:    0.04228

KBgen: Kleinman-Bylander projectors:
GHOST: No ghost state for L =  0
KBproj: WARNING: Rc(0)=      0.3608
KBproj: WARNING: Cut off radius for the KB projector too small
   l= 0   rc=  0.360771   el= -0.503243   Ekb=-43.540856   kbcos= -0.003669

KBgen: Total number of Kleinman-Bylander projectors:   1
atom: -------------------------------------------------------------------------

atom: SANKEY-TYPE ORBITALS:
atom: Selected multiple-zeta basis: split

SPLIT: Orbitals with angular momentum L= 0

SPLIT: Basis orbitals for state 1s

SPLIT: PAO cut-off radius determined from an
SPLIT: energy shift=  0.005000 Ry
Split based on tail norm

   izeta = 1
                 lambda =    1.000000
                     rc =    5.772464
                 energy =   -0.497573
                kinetic =    0.983085
    potential(screened) =   -1.480658
       potential(ionic) =   -1.978266
PAO Filter: Cutoff used:  142.10 Ry
PAO Filter: diagnostic kin energy tol:    0.003000 Ry
PAO Filter: Nominal cutoff (before filtering):  117.93 Ry
Filter:    Number of eigenfunctions  of the
           filtering kernel (total, used)= 55 20

   izeta = 2
                 rmatch =    1.631860
              splitnorm =    0.620000
                 energy =    1.774382
                kinetic =    6.071357
    potential(screened) =   -4.296974
       potential(ionic) =   -4.727849
PAO Filter: Cutoff used:  142.10 Ry
PAO Filter: diagnostic kin energy tol:    0.003000 Ry
PAO Filter: Nominal cutoff (before filtering):  901.83 Ry
Filter:    Number of eigenfunctions  of the
           filtering kernel (total, used)= 23  5
*Note: V_local used for l= 1

** Using vlocal for PAOs with L= 1

POLgen: Perturbative polarization orbital with L=  1

POLgen: Polarization orbital for state 1s
*Note: V_local used for lpol= 1

** Using vlocal for PAOs with L= 1
Split based on tail norm

   izeta = 1
                     rc =    5.772464
                 energy =    0.609532
                kinetic =    1.250628
    potential(screened) =   -0.641096
       potential(ionic) =   -1.109550
PAO Filter: diagnostic kin energy tol:    0.003000 Ry
PAO Filter: Nominal cutoff (before filtering):   54.19 Ry
Filter:    Number of eigenfunctions  of the
           filtering kernel (total, used)= 55 20
atom: Total number of Sankey-type orbitals:  5

atm_pop: Valence configuration (for local Pseudopot. screening):
 1s( 1.00)
 2p( 0.00)
Vna: chval, zval:    1.00000   1.00000

Vna:  Cut-off radius for the neutral-atom potential:   5.772464
VNA Filter: diagnostic kinetic energy tol:    0.003000 Ry
VNA Filter: Nominal cutoff (before filtering):31865.46 Ry
VNA Filter: Cutoff used:   290.00 Ry
Filter:    Number of eigenfunctions  of the
           filtering kernel (total, used)= 74 30

atom: _________________________________________________________________________

<basis_specs>
N                    Z=   7    Mass=  14.007        Charge= 0.17977+309
Lmxo=2 Lmxkb= 2    BasisType=split      Semic=F
L=0  Nsemic=0  Cnfigmx=2
          i=1  nzeta=2  polorb=0  (2s)
            splnorm:   0.28000
               vcte:    40.000
               rinn:  -0.90000
               qcoe:    0.0000
               qyuk:    0.0000
               qwid:   0.10000E-01
                rcs:    0.0000      0.0000
            lambdas:    1.0000      1.0000
L=1  Nsemic=0  Cnfigmx=2
          i=1  nzeta=2  polorb=1  (2p)  (to be polarized perturbatively)
            splnorm:   0.28000
               vcte:    40.000
               rinn:  -0.90000
               qcoe:    0.0000
               qyuk:    0.0000
               qwid:   0.10000E-01
                rcs:    0.0000      0.0000
            lambdas:    1.0000      1.0000
L=2  Nsemic=0  Cnfigmx=3
          i=1  nzeta=0  polorb=0  (3d)  (perturbative polarization orbital) (from 2p)
L=0  Nkbl=1  erefs: 0.17977+309
L=1  Nkbl=1  erefs: 0.17977+309
L=2  Nkbl=1  erefs: 0.17977+309
</basis_specs>

Filter: Requested cutoff:  290.000000 Ry
Using PAO.SplitTailNorm
atom: Called for N                     (Z =   7)
Maximum radius (at nrval) set to   50.00000 8518

[...]

KBgen: Kleinman-Bylander projectors:
GHOST: No ghost state for L =  0
[...]
     spin moment: {S} , |S| = {   -0.00000   -0.00000   -0.00000 }     0.00000

[...]

        iscf     Eharris(eV)        E_KS(eV)     FreeEng(eV)     dDmax    Ef(eV) dHmax(eV)
   scf:    1    -4667.798187    -4667.802057    -4667.802057  0.000305 -3.869418  0.021892
     spin moment: {S} , |S| = {   -0.00000   -0.00000   -0.00000 }     0.00000
   scf:    2    -4667.801761    -4667.801974    -4667.801974  0.000687 -3.857351  0.063757
     spin moment: {S} , |S| = {   -0.00000   -0.00000   -0.00000 }     0.00000
   scf:    3    -4667.802093    -4667.802069    -4667.802069  0.000516 -3.866075  0.001165
     spin moment: {S} , |S| = {   -0.00000   -0.00000   -0.00000 }     0.00000
   scf:    4    -4667.802069    -4667.802069    -4667.802069  0.000013 -3.865864  0.000542
     spin moment: {S} , |S| = {   -0.00000   -0.00000   -0.00000 }     0.00000
   scf:    5    -4667.802069    -4667.802069    -4667.802069  0.000009 -3.865750  0.000234
     spin moment: {S} , |S| = {   -0.00000   -0.00000   -0.00000 }     0.00000
   scf:    6    -4667.802069    -4667.802069    -4667.802069  0.000006 -3.865698  0.000080
     spin moment: {S} , |S| = {   -0.00000   -0.00000   -0.00000 }     0.00000
   scf:    7    -4667.802069    -4667.802069    -4667.802069  0.000003 -3.865678  0.000020
     spin moment: {S} , |S| = {   -0.00000   -0.00000   -0.00000 }     0.00000
   scf:    8    -4667.802069    -4667.802069    -4667.802069  0.000001 -3.865674  0.000006
     spin moment: {S} , |S| = {   -0.00000   -0.00000   -0.00000 }     0.00000
   scf:    9    -4667.802069    -4667.802069    -4667.802069  0.000000 -3.865673  0.000002
     spin moment: {S} , |S| = {   -0.00000   -0.00000   -0.00000 }     0.00000
   scf:   10    -4667.802069    -4667.802069    -4667.802069  0.000000 -3.865673  0.000002
     spin moment: {S} , |S| = {   -0.00000   -0.00000   -0.00000 }     0.00000
   scf:   11    -4667.802069    -4667.802069    -4667.802069  0.000000 -3.865673  0.000001
     spin moment: {S} , |S| = {   -0.00000   -0.00000   -0.00000 }     0.00000

[...]

        iscf     Eharris(eV)        E_KS(eV)     FreeEng(eV)     dDmax    Ef(eV) dHmax(eV)
   scf:    1    -4667.799686    -4667.802117    -4667.802117  0.000141 -3.866295  0.008158
     spin moment: {S} , |S| = {   -0.00000   -0.00000   -0.00000 }     0.00000
   scf:    2    -4667.802062    -4667.802102    -4667.802102  0.000258 -3.861376  0.021311
     spin moment: {S} , |S| = {   -0.00000   -0.00000   -0.00000 }     0.00000
   scf:    3    -4667.802124    -4667.802120    -4667.802120  0.000191 -3.864880  0.000798
     spin moment: {S} , |S| = {   -0.00000   -0.00000   -0.00000 }     0.00000
   scf:    4    -4667.802120    -4667.802120    -4667.802120  0.000009 -3.864785  0.000296
     spin moment: {S} , |S| = {   -0.00000   -0.00000   -0.00000 }     0.00000
   scf:    5    -4667.802120    -4667.802120    -4667.802120  0.000006 -3.864767  0.000059
     spin moment: {S} , |S| = {   -0.00000   -0.00000   -0.00000 }     0.00000
   scf:    6    -4667.802120    -4667.802120    -4667.802120  0.000002 -3.864768  0.000024
     spin moment: {S} , |S| = {   -0.00000   -0.00000   -0.00000 }     0.00000
   scf:    7    -4667.802120    -4667.802120    -4667.802120  0.000001 -3.864769  0.000007
     spin moment: {S} , |S| = {   -0.00000   -0.00000   -0.00000 }     0.00000
   scf:    8    -4667.802120    -4667.802120    -4667.802120  0.000000 -3.864768  0.000003
     spin moment: {S} , |S| = {   -0.00000   -0.00000   -0.00000 }     0.00000
   scf:    9    -4667.802120    -4667.802120    -4667.802120  0.000000 -3.864768  0.000001
     spin moment: {S} , |S| = {   -0.00000   -0.00000   -0.00000 }     0.00000

[...]

        iscf     Eharris(eV)        E_KS(eV)     FreeEng(eV)     dDmax    Ef(eV) dHmax(eV)
   scf:    1    -4667.799536    -4667.802247    -4667.802247  0.000219 -3.866180  0.014917
     spin moment: {S} , |S| = {   -0.00000   -0.00000   -0.00000 }     0.00000
   scf:    2    -4667.802121    -4667.802211    -4667.802211  0.000472 -3.858247  0.042936
     spin moment: {S} , |S| = {   -0.00000   -0.00000   -0.00000 }     0.00000
   scf:    3    -4667.802261    -4667.802252    -4667.802252  0.000354 -3.863973  0.000950
     spin moment: {S} , |S| = {   -0.00000   -0.00000   -0.00000 }     0.00000
   scf:    4    -4667.802252    -4667.802252    -4667.802252  0.000010 -3.863759  0.000347
     spin moment: {S} , |S| = {   -0.00000   -0.00000   -0.00000 }     0.00000
   scf:    5    -4667.802252    -4667.802252    -4667.802252  0.000006 -3.863677  0.000130
     spin moment: {S} , |S| = {   -0.00000   -0.00000   -0.00000 }     0.00000
   scf:    6    -4667.802252    -4667.802252    -4667.802252  0.000004 -3.863648  0.000034
     spin moment: {S} , |S| = {   -0.00000   -0.00000   -0.00000 }     0.00000
   scf:    7    -4667.802252    -4667.802252    -4667.802252  0.000001 -3.863641  0.000011
     spin moment: {S} , |S| = {   -0.00000   -0.00000   -0.00000 }     0.00000
   scf:    8    -4667.802252    -4667.802252    -4667.802252  0.000000 -3.863639  0.000006
     spin moment: {S} , |S| = {   -0.00000   -0.00000   -0.00000 }     0.00000
   scf:    9    -4667.802252    -4667.802252    -4667.802252  0.000000 -3.863639  0.000001
     spin moment: {S} , |S| = {   -0.00000   -0.00000   -0.00000 }     0.00000
   scf:   10    -4667.802252    -4667.802252    -4667.802252  0.000000 -3.863639  0.000001
     spin moment: {S} , |S| = {   -0.00000   -0.00000   -0.00000 }     0.00000

[...]

        iscf     Eharris(eV)        E_KS(eV)     FreeEng(eV)     dDmax    Ef(eV) dHmax(eV)
   scf:    1    -4667.800793    -4667.802354    -4667.802354  0.000201 -3.864456  0.008454
     spin moment: {S} , |S| = {   -0.00000   -0.00000   -0.00000 }     0.00000
   scf:    2    -4667.802289    -4667.802335    -4667.802335  0.000347 -3.859873  0.025740
     spin moment: {S} , |S| = {   -0.00000   -0.00000   -0.00000 }     0.00000
   scf:    3    -4667.802361    -4667.802356    -4667.802356  0.000256 -3.863268  0.000469
     spin moment: {S} , |S| = {   -0.00000   -0.00000   -0.00000 }     0.00000
   scf:    4    -4667.802356    -4667.802356    -4667.802356  0.000004 -3.863212  0.000192
     spin moment: {S} , |S| = {   -0.00000   -0.00000   -0.00000 }     0.00000
   scf:    5    -4667.802356    -4667.802356    -4667.802356  0.000003 -3.863195  0.000064
     spin moment: {S} , |S| = {   -0.00000   -0.00000   -0.00000 }     0.00000
   scf:    6    -4667.802356    -4667.802356    -4667.802356  0.000002 -3.863189  0.000025
     spin moment: {S} , |S| = {   -0.00000   -0.00000   -0.00000 }     0.00000
   scf:    7    -4667.802356    -4667.802356    -4667.802356  0.000001 -3.863187  0.000007
     spin moment: {S} , |S| = {   -0.00000   -0.00000   -0.00000 }     0.00000
   scf:    8    -4667.802356    -4667.802356    -4667.802356  0.000000 -3.863186  0.000003
     spin moment: {S} , |S| = {   -0.00000   -0.00000   -0.00000 }     0.00000
   scf:    9    -4667.802356    -4667.802356    -4667.802356  0.000000 -3.863185  0.000001
     spin moment: {S} , |S| = {   -0.00000   -0.00000   -0.00000 }     0.00000
   scf:   10    -4667.802356    -4667.802356    -4667.802356  0.000000 -3.863185  0.000001
     spin moment: {S} , |S| = {   -0.00000   -0.00000   -0.00000 }     0.00000

[...]

                        Begin Broyden opt. move =     18

outcoor: Atomic coordinates (Ang):
    0.96797380    3.51790565    0.00000000   1       1  H
    0.27828277    2.73345350    0.00000000   2       2  N
   -1.40733853    3.18795885    0.00000000   3       3  Si
   -1.55433290    4.67418452    0.00000000   1       4  H
   -2.96939626    1.65863702    0.00000000   3       5  Si
   -4.43242075    1.91574123    0.00000000   1       6  H
   -1.75178161   -0.21592559    0.00000000   3       7  Si
   -2.46785328   -1.78793729    0.00000000   2       8  N
   -1.85727867   -2.63417803    0.00000000   1       9  H
   -3.49602273   -1.96081228    0.00000000   1      10  H
   -0.09966837   -0.14351818    0.00000000   2      11  N
    1.04448436    1.09856355    0.00000000   3      12  Si
    2.60224792    1.07406127    0.00000000   4      13  O

outcell: Unit cell vectors (Ang):
       13.908324    0.000000    0.000000
        0.000000   14.884805    0.000000
        0.000000    0.000000    8.754136

outcell: Cell vector modules (Ang)   :   13.908324   14.884805    8.754136
outcell: Cell angles (23,13,12) (deg):     90.0000     90.0000     90.0000
outcell: Cell volume (Ang**3)        :   1812.3048
<dSpData1D:S at geom step 18
  <sparsity:sparsity for geom step 18
    nrows_g=129 nrows=5 sparsity=.0366 nnzs=609, refcount: 8>
  <dData1D:(new from dSpData1D) n=609, refcount: 1>
refcount: 1>
new_DM -- step:    19
Re-using DM from previous geometries...
Number of DMs in history: 1
 DM extrapolation coefficients:
1   1.00000
New DM after history re-use:
<dSpData2D:SpM extrapolated using coords
  <sparsity:sparsity for geom step 18
    nrows_g=129 nrows=5 sparsity=.0366 nnzs=609, refcount: 10>
  <dData2D:(temp array for extrapolation) n=609 m=8, refcount: 1>
refcount: 1>
     spin moment: {S} , |S| = {   -0.00000   -0.00000   -0.00000 }     0.00000

InitMesh: MESH = 150 x 160 x 96 = 2304000
InitMesh: Mesh cutoff (required, used) =   300.000   319.342 Ry
New grid distribution [1]: sub = 2
New grid distribution [2]: sub = 2
New grid distribution [3]: sub = 2
Setting up quadratic distribution...

        iscf     Eharris(eV)        E_KS(eV)     FreeEng(eV)     dDmax    Ef(eV) dHmax(eV)
   scf:    1    -4667.801940    -4667.802402    -4667.802402  0.000086 -3.863322  0.004248
     spin moment: {S} , |S| = {   -0.00000   -0.00000   -0.00000 }     0.00000
   scf:    2    -4667.802387    -4667.802398    -4667.802398  0.000185 -3.860774  0.011836
     spin moment: {S} , |S| = {   -0.00000   -0.00000   -0.00000 }     0.00000
   scf:    3    -4667.802404    -4667.802403    -4667.802403  0.000135 -3.862603  0.000669
     spin moment: {S} , |S| = {   -0.00000   -0.00000   -0.00000 }     0.00000
   scf:    4    -4667.802403    -4667.802403    -4667.802403  0.000002 -3.862546  0.000259
     spin moment: {S} , |S| = {   -0.00000   -0.00000   -0.00000 }     0.00000
   scf:    5    -4667.802403    -4667.802403    -4667.802403  0.000001 -3.862530  0.000077
     spin moment: {S} , |S| = {   -0.00000   -0.00000   -0.00000 }     0.00000
   scf:    6    -4667.802403    -4667.802403    -4667.802403  0.000001 -3.862526  0.000028
     spin moment: {S} , |S| = {   -0.00000   -0.00000   -0.00000 }     0.00000
   scf:    7    -4667.802403    -4667.802403    -4667.802403  0.000001 -3.862524  0.000006
     spin moment: {S} , |S| = {   -0.00000   -0.00000   -0.00000 }     0.00000
   scf:    8    -4667.802403    -4667.802403    -4667.802403  0.000000 -3.862522  0.000002
     spin moment: {S} , |S| = {   -0.00000   -0.00000   -0.00000 }     0.00000
   scf:    9    -4667.802403    -4667.802403    -4667.802403  0.000000 -3.862522  0.000001
     spin moment: {S} , |S| = {   -0.00000   -0.00000   -0.00000 }     0.00000

SCF Convergence by DM+H criterion
max |DM_out - DM_in|         :     0.0000001412
max |H_out - H_in|      (eV) :     0.0000006500
SCF cycle converged after 9 iterations

Using DM_out to compute the final energy and forces

siesta: E_KS(eV) =            -4667.8024
     spin moment: {S} , |S| = {   -0.00000   -0.00000   -0.00000 }     0.00000

siesta: Atomic forces (eV/Ang):
     1   -0.000883   -0.002806    0.000000
     2   -0.000169   -0.003272    0.000000
     3    0.000250   -0.002306   -0.000000
     4   -0.002617   -0.002831   -0.000000
     5    0.002444    0.044724    0.000000
     6    0.001465   -0.007472   -0.000000
     7    0.001540   -0.000030   -0.000000
     8    0.001785   -0.001031    0.000000
     9   -0.000680    0.006957   -0.000000
    10    0.003906   -0.007958   -0.000000
    11    0.003537   -0.006447    0.000000
    12    0.006458   -0.003498    0.000000
    13    0.000109   -0.002107   -0.000000
   Tot    0.017145    0.011923   -0.000000
   Max    0.044724
   Res    0.007763    sqrt( Sum f_i^2 / 3N )
   Max    0.007958    constrained

Stress tensor Voigt[x,y,z,yz,xz,xy] (kbar):        0.08        0.06       -0.01       -0.00       -0.00        0.06
(Free)E + p*V (eV/cell)    -4667.8530
Target enthalpy (eV/cell)    -4667.8024

outcoor: Relaxed atomic coordinates (Ang):
    0.96797380    3.51790565    0.00000000   1       1  H
    0.27828277    2.73345350    0.00000000   2       2  N
   -1.40733853    3.18795885    0.00000000   3       3  Si
   -1.55433290    4.67418452    0.00000000   1       4  H
   -2.96939626    1.65863702    0.00000000   3       5  Si
   -4.43242075    1.91574123    0.00000000   1       6  H
   -1.75178161   -0.21592559    0.00000000   3       7  Si
   -2.46785328   -1.78793729    0.00000000   2       8  N
   -1.85727867   -2.63417803    0.00000000   1       9  H
   -3.49602273   -1.96081228    0.00000000   1      10  H
   -0.09966837   -0.14351818    0.00000000   2      11  N
    1.04448436    1.09856355    0.00000000   3      12  Si
    2.60224792    1.07406127    0.00000000   4      13  O

siesta: Program's energy decomposition (eV):
siesta: Ebs     =      -487.320865
siesta: Eions   =      4929.340058
siesta: Ena     =       882.243701
siesta: Ekin    =      1179.501870
siesta: Enl(+so)=      -725.245296
siesta: Eso(nil)=         0.000000
siesta: Edftu   =         0.000000
siesta: DEna    =         1.122474
siesta: DUscf   =         5.655848
siesta: DUext   =         0.000000
siesta: Ex      =      -992.166535
siesta: Ec      =       -89.574408
siesta: Exc     =     -1081.740943
siesta: EbV     =         0.000000
siesta: eta*DQ  =         0.000000
siesta: Emadel  =         0.000000
siesta: Emeta   =         0.000000
siesta: Emolmec =         0.000000
siesta: Ekinion =         0.000000
siesta: Eharris =     -4667.802403
siesta: Etot    =     -4667.802403
siesta: FreeEng =     -4667.802403

siesta: Final energy (eV):
siesta:  Band Struct. =    -487.320865
siesta:       Kinetic =    1179.501870
siesta:       Hartree =    2645.334358
siesta:         Edftu =       0.000000
siesta:      Eso(nil) =       0.000000
siesta:    Ext. field =       0.000000
siesta:         Exch. =    -992.166535
siesta:         Corr. =     -89.574408
siesta:     Bulk bias =       0.000000
siesta:   Exch.-corr. =   -1081.740943
siesta:  Ion-electron =   -6317.240029
siesta:       Ion-ion =   -1093.657659
siesta:       Ekinion =       0.000000
siesta: D3 dispersion =       0.000000
siesta:         Total =   -4667.802403
siesta:         Fermi =      -3.862522

siesta: Atomic forces (eV/Ang):
siesta:      1   -0.000883   -0.002806    0.000000
siesta:      2   -0.000169   -0.003272    0.000000
siesta:      3    0.000250   -0.002306   -0.000000
siesta:      4   -0.002617   -0.002831   -0.000000
siesta:      5    0.002444    0.044724    0.000000
siesta:      6    0.001465   -0.007472   -0.000000
siesta:      7    0.001540   -0.000030   -0.000000
siesta:      8    0.001785   -0.001031    0.000000
siesta:      9   -0.000680    0.006957   -0.000000
siesta:     10    0.003906   -0.007958   -0.000000
siesta:     11    0.003537   -0.006447    0.000000
siesta:     12    0.006458   -0.003498    0.000000
siesta:     13    0.000109   -0.002107   -0.000000
siesta: ----------------------------------------
siesta:    Tot    0.017145    0.011923   -0.000000

siesta: Stress tensor (static) (eV/Ang**3):
siesta:     0.000051    0.000036   -0.000000
siesta:     0.000036    0.000038   -0.000000
siesta:    -0.000000   -0.000000   -0.000005

siesta: Cell volume =       1812.304789 Ang**3

siesta: Pressure (static):
siesta:                Solid            Molecule  Units
siesta:          -0.00000030         -0.00000030  Ry/Bohr**3
siesta:          -0.00002789         -0.00002764  eV/Ang**3
siesta:          -0.04468886         -0.04427659  kBar
(Free)E+ p_basis*V_orbitals  =       -4661.373321
(Free)Eharris+ p_basis*V_orbitals  =       -4661.373321
     spin moment: {S} , |S| = {   -0.00000   -0.00000   -0.00000 }     0.00000

siesta: Electric dipole (a.u.)  =   -2.887928    0.216254    0.000000
siesta: Electric dipole (Debye) =   -7.340381    0.549663    0.000000

cite: Please see "Cytosine.bib" for an exhaustive BiBTeX file.
cite: Please clearly indicate Siesta version in published work: 5.1-MaX-41-g6ad11e234
cite: This calculation has made use of the following articles
cite: which are encouraged to be cited in a published work.
        Primary SIESTA paper
          DOI: www.doi.org/10.1088/0953-8984/14/11/302
        Spin-orbit coupling (off-site approximation)
          DOI: www.doi.org/10.1088/0953-8984/24/8/086005
        ELPA library
          DOI: www.doi.org/10.1088/0953-8984/26/21/213201

>> End of run:  11-OCT-2024  21:35:49
Job completed