>> Start of run:   4-JUL-2023  10:40:05

reinit: Reading from standard input
reinit: Dumped input in INPUT_TMP.32189
************************** Dump of input data file ****************************
SystemLabel      GC
NumberOfAtoms    29
NumberOfSpecies  4
%block ChemicalSpeciesLabel
    1    8  O
    2    7  N
    3   14  Si
    4    1  H
%endblock ChemicalSpeciesLabel
# Single point calculation
MD.TypeOfRun                CG
MD.Steps                    0
SCF.MustConverge            F # In case it does not. There can be 2 very close atoms
AtomicCoordinatesFormat NotScaledCartesianAng
%block AtomicCoordinatesAndAtomicSpecies
0.958671510    3.803529300    0.000000000       1
-3.038688210   0.998073330    0.000000000       2
2.066567750    1.099065770    0.000000000       2
1.029569860    -1.834680850   0.000000000       2
-2.108567660   -1.881798240   0.000000000       2
3.912411070    -1.180894430   0.000000000       2
-1.235636790   1.044983000    0.000000000       3
-0.501909240   -1.031832280   0.000000000       3
0.629463280    2.232755840    0.000000000       3
2.280054370    -0.658293540   0.000000000       3
-3.424812990   -0.662324160   0.000000000       3
2.965974160    1.682263990    0.000000000       4
-4.796229390   -1.238728480   0.000000000       4
4.096559410    -2.214148760   0.000000000       4
4.792108680    -0.529147250   0.000000000       4
-2.266861300   -2.922393730   0.000000000       4
4.607714435    4.902850373    0.000000000       3
6.533192185    6.094479703    0.000000000       3
6.068385795    2.168296003    0.000000000       3
8.139565715    4.615342593    0.000000000       3
4.709998975    3.193495683    0.000000000       2
3.028336345    5.573079863    0.000000000       2
7.721455695    2.883459683    0.000000000       2
6.841683005    7.559141063    0.000000000       4
9.631238625    4.815322053    0.000000000       4
2.843709905    6.607953593    0.000000000       4
2.136244555    4.901791133    0.000000000       4
6.058255195    0.570067483    0.000000000       1
8.498054075    2.161629483    0.000000000       4
%endblock AtomicCoordinatesAndAtomicSpecies
%include ../../../Defaults.fdf
************************** End of input data file *****************************

reinit: -----------------------------------------------------------------------
reinit: System Name:
reinit: -----------------------------------------------------------------------
reinit: System Label: GC
reinit: -----------------------------------------------------------------------

initatom: Reading input for the pseudopotentials and atomic orbitals ----------
Species number:   1 Atomic number:    8 Label: O
Species number:   2 Atomic number:    7 Label: N
Species number:   3 Atomic number:   14 Label: Si
Species number:   4 Atomic number:    1 Label: H

Ground state valence configuration:   2s02  2p04
Reading pseudopotential information in formatted form from O.psf

Pseudopotential generated from a relativistic atomic calculation

Valence configuration for pseudopotential generation:
2s( 2.00) rc: 0.45
2p( 4.00) rc: 0.92
3d( 0.00) rc: 2.24
4f( 0.00) rc: 0.25
Ground state valence configuration:   2s02  2p03
Reading pseudopotential information in formatted form from N.psf

[...]

Valence configuration for pseudopotential generation:
2s( 2.00) rc: 0.94
2p( 3.00) rc: 0.59
3d( 0.00) rc: 3.46
4f( 0.00) rc: 2.47
Ground state valence configuration:   3s02  3p02
Reading pseudopotential information in formatted form from Si.psf

[...]

Valence configuration for pseudopotential generation:
3s( 2.00) rc: 1.67
3p( 2.00) rc: 2.04
3d( 0.00) rc: 2.89
4f( 0.00) rc: 2.49
Ground state valence configuration:   1s01
Reading pseudopotential information in formatted form from H.psf

Pseudopotential generated from a relativistic atomic calculation

Valence configuration for pseudopotential generation:
1s( 1.00) rc: 0.01
2p( 0.00) rc: 0.60
3d( 0.00) rc: 1.99
4f( 0.00) rc: 2.49
For O, standard SIESTA heuristics set lmxkb to 3
 (one more than the basis l, including polarization orbitals).
Use PS.lmax or PS.KBprojectors blocks to override.
For N, standard SIESTA heuristics set lmxkb to 3
 (one more than the basis l, including polarization orbitals).
Use PS.lmax or PS.KBprojectors blocks to override.
For Si, standard SIESTA heuristics set lmxkb to 3
 (one more than the basis l, including polarization orbitals).
Use PS.lmax or PS.KBprojectors blocks to override.
For H, standard SIESTA heuristics set lmxkb to 2
 (one more than the basis l, including polarization orbitals).
Use PS.lmax or PS.KBprojectors blocks to override.

<basis_specs>
O                    Z=   8    Mass=  16.000        Charge= 0.17977+309
Lmxo=1 Lmxkb= 3    BasisType=split      Semic=F
L=0  Nsemic=0  Cnfigmx=2
          i=1  nzeta=2  polorb=0  (2s)
            splnorm:   0.28000
               vcte:    0.0000
               rinn:    0.0000
               qcoe:    0.0000
               qyuk:    0.0000
               qwid:   0.10000E-01
                rcs:    0.0000      0.0000
            lambdas:    1.0000      1.0000
L=1  Nsemic=0  Cnfigmx=2
          i=1  nzeta=2  polorb=1  (2p)
            splnorm:   0.28000
               vcte:    0.0000
               rinn:    0.0000
               qcoe:    0.0000
               qyuk:    0.0000
               qwid:   0.10000E-01
                rcs:    0.0000      0.0000
            lambdas:    1.0000      1.0000
L=0  Nkbl=1  erefs: 0.17977+309
L=1  Nkbl=1  erefs: 0.17977+309
L=2  Nkbl=1  erefs: 0.17977+309
L=3  Nkbl=1  erefs: 0.17977+309
</basis_specs>

atom: Called for O                     (Z =   8)

read_vps: Pseudopotential generation method:
read_vps: ATM4.2.7  Troullier-Martins
Valence charge for ps generation:    6.00000

xc_check: Exchange-correlation functional:
xc_check: GGA Perdew, Burke & Ernzerhof 1996
V l=0 = -2*Zval/r beyond r=  1.1000
V l=1 = -2*Zval/r beyond r=  1.1000
V l=2 = -2*Zval/r beyond r=  2.2154
V l=3 = -2*Zval/r beyond r=  1.1000
All V_l potentials equal beyond r=  2.2154
This should be close to max(r_c) in ps generation
All pots = -2*Zval/r beyond r=  2.2154

VLOCAL1: 99.0% of the norm of Vloc inside      8.845 Ry
VLOCAL1: 99.9% of the norm of Vloc inside     20.157 Ry
atom: Maximum radius for 4*pi*r*r*local-pseudopot. charge    2.67231
atom: Maximum radius for r*vlocal+2*Zval:    2.32897
GHOST: No ghost state for L =  0
GHOST: No ghost state for L =  1
GHOST: No ghost state for L =  2
GHOST: No ghost state for L =  3

KBgen: Kleinman-Bylander projectors:
   l= 0   rc=  2.243238   el= -1.759686   Ekb=**********   kbcos= -0.171774
   l= 1   rc=  2.328968   el= -0.663873   Ekb=-14.506792   kbcos= -0.519897
   l= 2   rc=  2.573941   el=  0.002031   Ekb= -1.137373   kbcos= -0.019581
   l= 3   rc=  2.606321   el=  0.003153   Ekb= -1.013546   kbcos= -0.003122

KBgen: Total number of Kleinman-Bylander projectors:   16
atom: -------------------------------------------------------------------------

atom: SANKEY-TYPE ORBITALS:
atom: Selected multiple-zeta basis: split

SPLIT: Orbitals with angular momentum L= 0

SPLIT: Basis orbitals for state 2s

SPLIT: PAO cut-off radius determined from an
SPLIT: energy shift=  0.002000 Ry

   izeta = 1
                 lambda =    1.000000
                     rc =    4.243912
                 energy =   -1.758270
                kinetic =    3.286084
    potential(screened) =   -5.044353
       potential(ionic) =  -12.921184

   izeta = 2
                 rmatch =    2.187845
              splitnorm =    0.280000
                 energy =   -0.885018
                kinetic =    8.134434
    potential(screened) =   -9.019452
       potential(ionic) =  -17.710645

[...]

SPLIT: Basis orbitals for state 2p

[...]

POLgen: Perturbative polarization orbital with L=  2

POLgen: Polarization orbital for state 2p

   izeta = 1
                     rc =    5.314825
                 energy =    1.970580
                kinetic =    3.886128
    potential(screened) =   -1.915547
       potential(ionic) =   -7.749584
atom: Total number of Sankey-type orbitals: 13

atm_pop: Valence configuration (for local Pseudopot. screening):
 2s( 2.00)
 2p( 4.00)
Vna: chval, zval:    6.00000   6.00000

Vna:  Cut-off radius for the neutral-atom potential:   5.314825

atom: _________________________________________________________________________

[...]

KBgen: Kleinman-Bylander projectors:
   l= 0   rc=  3.417763   el= -1.365098   Ekb= -4.433130   kbcos= -0.707855
   l= 1   rc=  3.375302   el= -0.521201   Ekb=-13.264039   kbcos= -0.535594
   l= 2   rc=  3.872880   el=  0.001991   Ekb= -0.641094   kbcos= -0.062456
   l= 3   rc=  3.970931   el=  0.003093   Ekb= -0.474517   kbcos= -0.018236

[...]

<basis_specs>
Si                   Z=  14    Mass=  28.090        Charge= 0.17977+309
Lmxo=1 Lmxkb= 3    BasisType=split      Semic=F
L=0  Nsemic=0  Cnfigmx=3
          i=1  nzeta=2  polorb=0  (3s)
            splnorm:   0.28000
               vcte:    0.0000
               rinn:    0.0000
               qcoe:    0.0000
               qyuk:    0.0000
               qwid:   0.10000E-01
                rcs:    0.0000      0.0000
            lambdas:    1.0000      1.0000
L=1  Nsemic=0  Cnfigmx=3
          i=1  nzeta=2  polorb=1  (3p)
            splnorm:   0.28000
               vcte:    0.0000
               rinn:    0.0000
               qcoe:    0.0000
               qyuk:    0.0000
               qwid:   0.10000E-01
                rcs:    0.0000      0.0000
            lambdas:    1.0000      1.0000
L=0  Nkbl=1  erefs: 0.17977+309
L=1  Nkbl=1  erefs: 0.17977+309
L=2  Nkbl=1  erefs: 0.17977+309
L=3  Nkbl=1  erefs: 0.17977+309
</basis_specs>

[...]

KBgen: Kleinman-Bylander projectors:
   l= 0   rc=  3.075247   el= -0.794092   Ekb=  5.879390   kbcos=  0.167461
   l= 1   rc=  3.153101   el= -0.300068   Ekb=  2.642817   kbcos=  0.058301
   l= 2   rc=  3.273594   el=  0.001958   Ekb= -1.185135   kbcos= -0.104411
   l= 3   rc=  3.232927   el=  0.003046   Ekb= -0.497174   kbcos= -0.015889

[...]

SPLIT: Basis orbitals for state 3p

[...]

POLgen: Polarization orbital for state 3p

[...]

atm_pop: Valence configuration (for local Pseudopot. screening):
 3s( 2.00)
 3p( 2.00)
Vna: chval, zval:    4.00000   4.00000

[...]

<basis_specs>
H                    Z=   1    Mass=  1.0100        Charge= 0.17977+309
Lmxo=0 Lmxkb= 2    BasisType=split      Semic=F
L=0  Nsemic=0  Cnfigmx=1
          i=1  nzeta=2  polorb=1  (1s)
            splnorm:   0.62000
               vcte:    0.0000
               rinn:    0.0000
               qcoe:    0.0000
               qyuk:    0.0000
               qwid:   0.10000E-01
                rcs:    0.0000      0.0000
            lambdas:    1.0000      1.0000
L=0  Nkbl=1  erefs: 0.17977+309
L=1  Nkbl=1  erefs: 0.17977+309
L=2  Nkbl=1  erefs: 0.17977+309
</basis_specs>

atom: Called for H                     (Z =   1)

read_vps: Pseudopotential generation method:
read_vps: ATM4.2.7  Troullier-Martins
Valence charge for ps generation:    1.00000

xc_check: Exchange-correlation functional:
xc_check: GGA Perdew, Burke & Ernzerhof 1996
V l=0 = -2*Zval/r beyond r=  0.0098
V l=1 = -2*Zval/r beyond r=  0.5817
V l=2 = -2*Zval/r beyond r=  1.9372
[...]
     spin moment: S , {S} =    0.00000   0.00000   0.00000   0.00000

SCF Convergence by DM+H criterion
max |DM_out - DM_in|         :     0.0000001406
max |H_out - H_in|      (eV) :     0.0000004820
SCF cycle converged after 30 iterations

Using DM_out to compute the final energy and forces
No. of atoms with KB's overlaping orbs in proc 0. Max # of overlaps:      29     199

siesta: E_KS(eV) =            -4148.0033

siesta: E_KS - E_eggbox =     -4148.0033
     spin moment: S , {S} =    0.00000   0.00000   0.00000   0.00000

siesta: Atomic forces (eV/Ang):
     1   -0.470920    0.485048   -0.000000
     2   -0.006972    0.007301   -0.000000
     3    0.055405   -0.008538   -0.000000
     4    0.048907   -0.001606   -0.000000
     5    0.004826   -0.008905    0.000000
     6    0.195691    0.118214    0.000000
     7    0.001106   -0.015400   -0.000000
     8   -0.025433    0.018188    0.000000
     9    0.003263    0.083192   -0.000000
    10   -0.056049    0.033469    0.000000
    11   -0.000814   -0.001928   -0.000000
    12   -0.004958    0.048064    0.000000
    13   -0.035106   -0.015445    0.000000
    14   -0.097870   -0.130410   -0.000000
    15   -0.258476    0.017814    0.000000
    16    0.112675   -0.140226   -0.000000
    17    0.057297   -0.080557   -0.000000
    18   -0.013749    0.010134   -0.000000
    19   -0.026214   -0.071548    0.000000
    20   -0.007951   -0.025979   -0.000000
    21   -0.022674    0.063831    0.000000
    22   -0.298615   -0.161938    0.000000
    23   -0.007176    0.005696    0.000000
    24   -0.008264    0.074204   -0.000000
    25    0.018510   -0.020984   -0.000000
    26    0.042959    0.096112    0.000000
    27    0.142661   -0.023570   -0.000000
    28    3.803443   -1.774577   -0.000000
    29    0.011412    0.003553    0.000000
   Tot    3.156916   -1.416792    0.000000
   Max    3.803443
   Res    0.460482    sqrt( Sum f_i^2 / 3N )
   Max    3.803443    constrained

Stress tensor Voigt[x,y,z,yz,xz,xy] (kbar):       -0.26       -0.64       -0.11       -0.00        0.00        0.06
(Free)E + p*V (eV/cell)    -4147.0727
Target enthalpy (eV/cell)    -4148.0033

mulliken: Atomic and Orbital Populations:

Species: O

Atom      Orb        Charge      Spin       Svec
    1  7 2pz       -0.01625   0.00000     -0.000   0.000   0.000
    1  8 2px       -0.00090   0.00000     -0.000   0.000   0.000
    1  9 3Pdxy      0.00875   0.00000      0.000  -0.000   0.000
    1 10 3Pdyz      0.00762   0.00000      0.000   0.000  -0.000
    1 11 3Pdz2      0.00193   0.00000      0.000  -0.000   0.000
    1 12 3Pdxz     -0.00002   0.00000      0.000  -0.000  -0.000
    1 13 3Pdx2-y2   0.00542   0.00000      0.000   0.000  -0.000
    1     Total     6.50453   0.00000      0.000  -0.000   0.000

   28  7 2pz       -0.01502   0.00000     -0.000  -0.000   0.000
   28  8 2px       -0.00236   0.00000     -0.000   0.000   0.000
   28  9 3Pdxy      0.00852   0.00000      0.000  -0.000   0.000
   28 10 3Pdyz      0.00850   0.00000     -0.000   0.000  -0.000
   28 11 3Pdz2      0.00152   0.00000      0.000   0.000  -0.000
   28 12 3Pdxz     -0.00012   0.00000      0.000   0.000  -0.000
   28 13 3Pdx2-y2   0.00662   0.00000     -0.000  -0.000  -0.000
   28     Total     6.51409   0.00000      0.000   0.000   0.000

Total              13.01862   0.00000      0.000   0.000   0.000

[...]

Atom      Orb        Charge      Spin       Svec
    2  9 3Pdxy      0.00856   0.00000     -0.000  -0.000   0.000
    2 10 3Pdyz      0.01121   0.00000     -0.000   0.000  -0.000
    2 11 3Pdz2      0.00193   0.00000     -0.000   0.000  -0.000
    2 12 3Pdxz      0.00764   0.00000     -0.000   0.000  -0.000
    2 13 3Pdx2-y2   0.00929   0.00000     -0.000   0.000   0.000
    2     Total     5.37005   0.00000      0.000   0.000   0.000

    3  9 3Pdxy      0.00407   0.00000     -0.000   0.000   0.000
    3 10 3Pdyz      0.00387   0.00000     -0.000  -0.000   0.000
    3 11 3Pdz2      0.00053   0.00000      0.000  -0.000  -0.000
    3 12 3Pdxz      0.00281   0.00000     -0.000   0.000   0.000
    3 13 3Pdx2-y2   0.00245   0.00000      0.000  -0.000  -0.000
    3     Total     5.51875   0.00000      0.000   0.000   0.000

[...]

Atom      Orb        Charge      Spin       Svec
    7  9 3Pdxy      0.25222   0.00000     -0.000  -0.000  -0.000
    7 10 3Pdyz      0.02876   0.00000     -0.000   0.000   0.000
    7 11 3Pdz2      0.01060   0.00000      0.000  -0.000   0.000
    7 12 3Pdxz      0.15263   0.00000      0.000  -0.000   0.000
    7 13 3Pdx2-y2   0.11139   0.00000      0.000   0.000   0.000
    7     Total     3.83329   0.00000     -0.000   0.000  -0.000

    8  5 3px       -0.01985   0.00000      0.000  -0.000   0.000
    8  9 3Pdxy      0.24889   0.00000      0.000   0.000  -0.000
    8 10 3Pdyz      0.11208   0.00000     -0.000   0.000   0.000
    8 11 3Pdz2      0.01406   0.00000     -0.000  -0.000   0.000
    8 12 3Pdxz      0.15704   0.00000     -0.000   0.000  -0.000
    8 13 3Pdx2-y2   0.20198   0.00000      0.000  -0.000  -0.000
    8     Total     3.66138   0.00000     -0.000  -0.000   0.000

[...]

   20  9 3Pdxy      0.09918   0.00000     -0.000  -0.000  -0.000
   20 10 3Pdyz      0.12952   0.00000     -0.000   0.000   0.000
   20 11 3Pdz2      0.00720   0.00000     -0.000  -0.000  -0.000
   20 12 3Pdxz      0.02703   0.00000      0.000  -0.000  -0.000
   20 13 3Pdx2-y2   0.17441   0.00000      0.000  -0.000  -0.000
   20     Total     3.52273   0.00000      0.000  -0.000   0.000

[...]

Species: H

Atom      Orb        Charge      Spin       Svec
   12  3 2Ppy       0.03942   0.00000     -0.000  -0.000   0.000
   12  4 2Ppz       0.03084   0.00000     -0.000  -0.000  -0.000
   12  5 2Ppx       0.04311   0.00000      0.000   0.000  -0.000
   12     Total     0.77276   0.00000      0.000  -0.000  -0.000

   13  3 2Ppy       0.01915   0.00000      0.000  -0.000   0.000
   13  4 2Ppz       0.02019   0.00000     -0.000   0.000  -0.000
   13  5 2Ppx       0.03328   0.00000     -0.000  -0.000   0.000
   13     Total     1.18839   0.00000     -0.000  -0.000   0.000

[...]

   29  3 2Ppy       0.02468   0.00000      0.000  -0.000   0.000
   29  4 2Ppz       0.03480   0.00000     -0.000  -0.000  -0.000
   29  5 2Ppx       0.02698   0.00000      0.000  -0.000  -0.000
   29     Total     0.76354   0.00000      0.000  -0.000  -0.000

Total              98.00000   0.00000      0.000   0.000   0.000

siesta: Eigenvalues (eV):
ik =     1
  -22.7245  -22.7245  -22.3000  -22.3000  -21.4084  -21.4084  -21.2747  -21.2747  -21.0141  -21.0141
  -20.8045  -20.8045  -20.3192  -20.3192  -19.6273  -19.6273  -19.5310  -19.5310  -19.4104  -19.4104
  -14.7660  -14.7660  -13.8319  -13.8319  -13.2823  -13.2823  -13.1088  -13.1088  -12.9318  -12.9318
  -12.6648  -12.6648  -12.5841  -12.5841  -12.1367  -12.1367  -11.8495  -11.8495  -11.7084  -11.7084
  -11.0558  -11.0558  -10.8284  -10.8284  -10.5924  -10.5924  -10.4032  -10.4032  -10.1722  -10.1722
   -9.6618   -9.6618   -9.1013   -9.1013   -8.9409   -8.9409   -8.8146   -8.8146   -8.6557   -8.6557
   -8.5351   -8.5351   -8.4299   -8.4299   -8.3332   -8.3332   -7.9905   -7.9905   -7.8392   -7.8392
   -7.6139   -7.6139   -7.3881   -7.3881   -7.2274   -7.2274   -7.0987   -7.0987   -6.9031   -6.9031
   -6.6234   -6.6234   -6.6199   -6.6199   -6.3920   -6.3920   -6.3344   -6.3344   -6.3038   -6.3038
   -6.1126   -6.1126   -5.9665   -5.9665   -5.5502   -5.5502   -4.3125   -4.3125   -3.2572   -3.2572
   -2.3360   -2.3360   -2.2739   -2.2739   -2.1720   -2.1720   -1.8931   -1.8931   -1.8561   -1.8561
   -1.8071   -1.8071   -1.6558   -1.6558   -1.6086   -1.6086   -1.1460   -1.1460   -1.1218   -1.1218
   -0.9023   -0.9023   -0.4950   -0.4950   -0.4181   -0.4181   -0.3076   -0.3076    0.3866    0.3866
    0.5113    0.5113    0.5480    0.5480    0.7066    0.7066    1.0627    1.0627    1.1677    1.1677
    1.3417    1.3417    1.4019    1.4019    1.4729    1.4729    1.6079    1.6079    1.9912    1.9912
    2.0348    2.0348    2.6771    2.6771    2.7323    2.7323    2.7545    2.7545    2.8915    2.8915
    2.9073    2.9073    2.9976    2.9976    3.1706    3.1706    3.4604    3.4604    3.6104    3.6104
    3.8180    3.8180    4.0721    4.0721    4.1828    4.1828    4.2528    4.2528    4.5051    4.5051
    4.6357    4.6357    4.7479    4.7479    4.7758    4.7758    4.9948    4.9948    5.2944    5.2944
    5.3084    5.3084    5.4656    5.4656    5.7371    5.7371    5.8202    5.8202    5.9347    5.9347
    6.0168    6.0168    6.3184    6.3184    6.4165    6.4165    6.5171    6.5171    6.6168    6.6168
    6.7180    6.7180    6.8261    6.8261    6.9842    6.9842    7.1248    7.1248    7.1373    7.1373
    7.2400    7.2400    7.7143    7.7143    7.7450    7.7450    7.8937    7.8937    8.0469    8.0469
    8.1129    8.1129    8.4218    8.4218    8.5163    8.5163    8.5200    8.5200    8.6508    8.6508
    8.8041    8.8041    8.8558    8.8558    9.0933    9.0933    9.1016    9.1016    9.4766    9.4766
    9.5436    9.5436    9.8188    9.8188    9.9891    9.9891   10.0002   10.0002   10.2168   10.2168
   10.2280   10.2280   10.6132   10.6132   10.8884   10.8884   11.2425   11.2425   11.3701   11.3701
   11.3751   11.3751   11.4990   11.4990   12.2711   12.2711   12.3645   12.3645   12.4061   12.4061
   12.5125   12.5125   12.6519   12.6519   12.7423   12.7423   13.0494   13.0494   13.1771   13.1771
   13.6157   13.6157   13.7291   13.7291   13.7397   13.7397   14.0071   14.0071   14.0666   14.0666
   14.3138   14.3138   14.5050   14.5050   15.0078   15.0078   15.1619   15.1619   15.1973   15.1973
   15.5811   15.5811   16.3306   16.3306   16.7525   16.7525   16.7786   16.7786   17.1639   17.1639
   17.2685   17.2685   17.7292   17.7292   18.2298   18.2298   18.7845   18.7845   19.0568   19.0568
   19.4990   19.4990   19.9075   19.9075   20.2269   20.2269   20.6755   20.6755   20.7912   20.7912
   21.3044   21.3044   21.9093   21.9093   22.4347   22.4347   22.9927   22.9927   23.1970   23.1970
   23.8204   23.8204   24.0115   24.0115   24.2040   24.2040   24.5154   24.5154   25.1811   25.1811
   25.8035   25.8035   26.1726   26.1726   26.7231   26.7231   27.8008   27.8008   28.9203   28.9203
   29.2941   29.2941   29.4886   29.4886   30.1465   30.1465   30.3109   30.3109   30.6841   30.6841
   30.9381   30.9381   30.9691   30.9691   31.2900   31.2900   31.5130   31.5130   31.6557   31.6557
   32.2068   32.2068   33.3842   33.3842   33.8026   33.8026   34.0957   34.0957   34.1542   34.1542
   35.3241   35.3241   35.5145   35.5145   35.7215   35.7215   36.0609   36.0609   36.3919   36.3919
   36.6490   36.6490   37.0157   37.0157   37.1171   37.1171   37.2568   37.2568   38.5501   38.5501
   38.8013   38.8013   39.1787   39.1787   39.4872   39.4872   39.7524   39.7524   40.3598   40.3598
   40.5126   40.5126   40.7855   40.7855   41.4177   41.4177   41.5222   41.5222   41.6909   41.6909
   42.0796   42.0796   42.4710   42.4710   42.6187   42.6187   43.3631   43.3631   43.5997   43.5997
   43.7937   43.7937   44.0376   44.0376   44.2009   44.2009   44.4604   44.4604   44.8609   44.8609
   45.1371   45.1371   45.3293   45.3293   45.5590   45.5590   46.0150   46.0150   46.3171   46.3171
   46.6317   46.6317   47.5041   47.5041   47.8513   47.8513   48.1994   48.1994   49.2830   49.2830
   49.8478   49.8478   50.1965   50.1965   50.5366   50.5366   50.5420   50.5420   50.8027   50.8027
   51.4183   51.4183   51.8242   51.8242   52.4863   52.4863   52.4935   52.4935   54.1525   54.1525
   54.1901   54.1901   54.4811   54.4811   55.4225   55.4225   55.8111   55.8111   56.2741   56.2741
   56.4779   56.4779   56.9924   56.9924   58.2305   58.2305   58.5389   58.5389   58.6001   58.6001
   60.1001   60.1001   60.4944   60.4944   60.5224   60.5224   61.4116   61.4116   61.5637   61.5637
   62.4149   62.4149   62.6150   62.6150   63.0714   63.0714   63.4151   63.4151   66.1662   66.1662
   67.0851   67.0851   68.3350   68.3350   68.5856   68.5856   69.3697   69.3697   69.7545   69.7545
   70.5833   70.5833   70.8949   70.8949   71.5597   71.5597   75.6997   75.6997   86.8356   86.8356
   87.4903   87.4903   89.2990   89.2990   94.5371   94.5371   94.8349   94.8349   95.4805   95.4805
   99.8119   99.8119  101.4159  101.4159  102.6964  102.6964  104.4235  104.4235  105.7362  105.7362
  115.1932  115.1932  117.0377  117.0377  125.7759  125.7759  128.0339  128.0339  138.4233  138.4233
  144.6016  144.6016  146.5728  146.5728
siesta: Fermi energy =      -3.784618 eV

siesta: Program's energy decomposition (eV):
siesta: Ebs     =     -1134.157386
siesta: Eions   =      3585.165840
siesta: Ena     =       382.826634
siesta: Ekin    =      2912.569949
siesta: Enl     =     -2797.069577
siesta: Eso     =        -0.004337
siesta: Edftu   =         0.000000
siesta: DEna    =        47.985025
siesta: DUscf   =        13.799607
siesta: DUext   =         0.000000
siesta: Exc     =     -1122.944759
siesta: eta*DQ  =         0.000000
siesta: Emadel  =         0.000000
siesta: Emeta   =         0.000000
siesta: Emolmec =         0.000000
siesta: Ekinion =         0.000000
siesta: Eharris =     -4148.003298
siesta: Etot    =     -4148.003298
siesta: FreeEng =     -4148.003298

siesta: Final energy (eV):
siesta:  Band Struct. =   -1134.157386
siesta:       Kinetic =    2912.569949
siesta:       Hartree =    9031.727786
siesta:       Edftu   =       0.000000
siesta:       Eso     =      -0.004337
siesta:    Ext. field =       0.000000
siesta:   Exch.-corr. =   -1122.944759
siesta:  Ion-electron =  -20652.282442
siesta:       Ion-ion =    5682.930505
siesta:       Ekinion =       0.000000
siesta:         Total =   -4148.003298
siesta:         Fermi =      -3.784618

siesta: Atomic forces (eV/Ang):
siesta:      1   -0.470920    0.485048   -0.000000
siesta:      2   -0.006972    0.007301   -0.000000
siesta:      3    0.055405   -0.008538   -0.000000
siesta:      4    0.048907   -0.001606   -0.000000
siesta:      5    0.004826   -0.008905    0.000000
siesta:      6    0.195691    0.118214    0.000000
siesta:      7    0.001106   -0.015400   -0.000000
siesta:      8   -0.025433    0.018188    0.000000
siesta:      9    0.003263    0.083192   -0.000000
siesta:     10   -0.056049    0.033469    0.000000
siesta:     11   -0.000814   -0.001928   -0.000000
siesta:     12   -0.004958    0.048064    0.000000
siesta:     13   -0.035106   -0.015445    0.000000
siesta:     14   -0.097870   -0.130410   -0.000000
siesta:     15   -0.258476    0.017814    0.000000
siesta:     16    0.112675   -0.140226   -0.000000
siesta:     17    0.057297   -0.080557   -0.000000
siesta:     18   -0.013749    0.010134   -0.000000
siesta:     19   -0.026214   -0.071548    0.000000
siesta:     20   -0.007951   -0.025979   -0.000000
siesta:     21   -0.022674    0.063831    0.000000
siesta:     22   -0.298615   -0.161938    0.000000
siesta:     23   -0.007176    0.005696    0.000000
siesta:     24   -0.008264    0.074204   -0.000000
siesta:     25    0.018510   -0.020984   -0.000000
siesta:     26    0.042959    0.096112    0.000000
siesta:     27    0.142661   -0.023570   -0.000000
siesta:     28    3.803443   -1.774577   -0.000000
siesta:     29    0.011412    0.003553    0.000000
siesta: ----------------------------------------
siesta:    Tot    3.156916   -1.416792    0.000000

siesta: Stress tensor (static) (eV/Ang**3):
siesta:    -0.000163    0.000040   -0.000000
siesta:     0.000040   -0.000400   -0.000000
siesta:     0.000000   -0.000000   -0.000069

siesta: Cell volume =       4419.743180 Ang**3

siesta: Pressure (static):
siesta:                Solid            Molecule  Units
siesta:           0.00000229         -0.00001099  Ry/Bohr**3
siesta:           0.00021056         -0.00100879  eV/Ang**3
siesta:           0.33735846         -1.61627977  kBar
(Free)E+ p_basis*V_orbitals  =       -4128.152880
(Free)Eharris+ p_basis*V_orbitals  =       -4128.152880
     spin moment: S , {S} =    0.00000   0.00000   0.00000   0.00000

siesta: Electric dipole (a.u.)  =    1.650285    0.169870    0.000000
siesta: Electric dipole (Debye) =    4.194609    0.431766    0.000000

cite: Please see "GC.bib" for an exhaustive BiBTeX file.
cite: Please clearly indicate Siesta version in published work: v4.1.5-1-g384057250
cite: This calculation has made use of the following articles
cite: which are encouraged to be cited in a published work.
        Primary SIESTA paper
          DOI: www.doi.org/10.1088/0953-8984/14/11/302
        Spin-orbit coupling (on-site approximation)
          DOI: www.doi.org/10.1088/0953-8984/19/19/489001

WARNING: alloc-realloc-dealloc name mismatch
         Name: atomlist isa
         Node:     0
         Subsequent mismatches will not be reported
>> End of run:   4-JUL-2023  10:44:31
Job completed