>> Start of run:  28-JUN-2023  15:29:30

reinit: Reading from standard input
reinit: Dumped input in INPUT_TMP.10525
************************** Dump of input data file ****************************
SystemLabel      GC
NumberOfAtoms    29
NumberOfSpecies  4
%block ChemicalSpeciesLabel
    1    8  O
    2    7  N
    3   14  Si
    4    1  H
%endblock ChemicalSpeciesLabel
# Single point calculation
MD.TypeOfRun                CG
MD.Steps                    0
SCF.MustConverge            F # In case it does not. There can be 2 very close atoms
AtomicCoordinatesFormat NotScaledCartesianAng
%block AtomicCoordinatesAndAtomicSpecies
1.043624880    3.939228610    0.000000000       1
-3.040641290   1.071078170    0.000000000       2
2.054601450    1.213582070    0.000000000       2
0.999014100    -1.732643800   0.000000000       2
-2.132351640   -1.812968220   0.000000000       2
3.860190550    -1.112298180   0.000000000       2
-1.236183220   1.152964460    0.000000000       3
-0.532924260   -0.939006270   0.000000000       3
0.635660470    2.374516770    0.000000000       3
2.245170240    -0.549967100   0.000000000       3
-3.449816660   -0.583665030   0.000000000       3
2.963714090    1.790992630    0.000000000       4
-4.845591350   -1.123549660   0.000000000       4
4.007020910    -2.152308560   0.000000000       4
4.772194380    -0.502318160   0.000000000       4
-2.265399090   -2.864605110   0.000000000       4
6.191981403    5.756118065    0.000000000       3
8.096865373    6.962757005    0.000000000       3
7.601111233    2.989783095    0.000000000       3
9.678581523    5.459000255    0.000000000       3
6.251604073    4.038690495    0.000000000       2
4.652846343    6.509795375    0.000000000       2
9.253406493    3.719620315    0.000000000       2
8.288210173    8.454910755    0.000000000       4
11.162949503   5.677731075    0.000000000       4
4.541501063    7.558990485    0.000000000       4
3.720288633    5.884881195    0.000000000       4
7.590884403    1.381671975    0.000000000       1
10.028832373   2.992928755    0.000000000       4
%endblock AtomicCoordinatesAndAtomicSpecies
%include ../../../Defaults.fdf
************************** End of input data file *****************************

reinit: -----------------------------------------------------------------------
reinit: System Name:
reinit: -----------------------------------------------------------------------
reinit: System Label: GC
reinit: -----------------------------------------------------------------------

initatom: Reading input for the pseudopotentials and atomic orbitals ----------
Species number:   1 Atomic number:    8 Label: O
Species number:   2 Atomic number:    7 Label: N
Species number:   3 Atomic number:   14 Label: Si
Species number:   4 Atomic number:    1 Label: H

Ground state valence configuration:   2s02  2p04
Reading pseudopotential information in formatted form from O.psf

Pseudopotential generated from a relativistic atomic calculation

Valence configuration for pseudopotential generation:
2s( 2.00) rc: 0.45
2p( 4.00) rc: 0.92
3d( 0.00) rc: 2.24
4f( 0.00) rc: 0.25
Ground state valence configuration:   2s02  2p03
Reading pseudopotential information in formatted form from N.psf

[...]

Valence configuration for pseudopotential generation:
2s( 2.00) rc: 0.94
2p( 3.00) rc: 0.59
3d( 0.00) rc: 3.46
4f( 0.00) rc: 2.47
Ground state valence configuration:   3s02  3p02
Reading pseudopotential information in formatted form from Si.psf

[...]

Valence configuration for pseudopotential generation:
3s( 2.00) rc: 1.67
3p( 2.00) rc: 2.04
3d( 0.00) rc: 2.89
4f( 0.00) rc: 2.49
Ground state valence configuration:   1s01
Reading pseudopotential information in formatted form from H.psf

Pseudopotential generated from a relativistic atomic calculation

Valence configuration for pseudopotential generation:
1s( 1.00) rc: 0.01
2p( 0.00) rc: 0.60
3d( 0.00) rc: 1.99
4f( 0.00) rc: 2.49
For O, standard SIESTA heuristics set lmxkb to 3
 (one more than the basis l, including polarization orbitals).
Use PS.lmax or PS.KBprojectors blocks to override.
For N, standard SIESTA heuristics set lmxkb to 3
 (one more than the basis l, including polarization orbitals).
Use PS.lmax or PS.KBprojectors blocks to override.
For Si, standard SIESTA heuristics set lmxkb to 3
 (one more than the basis l, including polarization orbitals).
Use PS.lmax or PS.KBprojectors blocks to override.
For H, standard SIESTA heuristics set lmxkb to 2
 (one more than the basis l, including polarization orbitals).
Use PS.lmax or PS.KBprojectors blocks to override.

<basis_specs>
O                    Z=   8    Mass=  16.000        Charge= 0.17977+309
Lmxo=1 Lmxkb= 3    BasisType=split      Semic=F
L=0  Nsemic=0  Cnfigmx=2
          i=1  nzeta=2  polorb=0  (2s)
            splnorm:   0.28000
               vcte:    0.0000
               rinn:    0.0000
               qcoe:    0.0000
               qyuk:    0.0000
               qwid:   0.10000E-01
                rcs:    0.0000      0.0000
            lambdas:    1.0000      1.0000
L=1  Nsemic=0  Cnfigmx=2
          i=1  nzeta=2  polorb=1  (2p)
            splnorm:   0.28000
               vcte:    0.0000
               rinn:    0.0000
               qcoe:    0.0000
               qyuk:    0.0000
               qwid:   0.10000E-01
                rcs:    0.0000      0.0000
            lambdas:    1.0000      1.0000
L=0  Nkbl=1  erefs: 0.17977+309
L=1  Nkbl=1  erefs: 0.17977+309
L=2  Nkbl=1  erefs: 0.17977+309
L=3  Nkbl=1  erefs: 0.17977+309
</basis_specs>

atom: Called for O                     (Z =   8)

read_vps: Pseudopotential generation method:
read_vps: ATM4.2.7  Troullier-Martins
Valence charge for ps generation:    6.00000

xc_check: Exchange-correlation functional:
xc_check: GGA Perdew, Burke & Ernzerhof 1996
V l=0 = -2*Zval/r beyond r=  1.1000
V l=1 = -2*Zval/r beyond r=  1.1000
V l=2 = -2*Zval/r beyond r=  2.2154
V l=3 = -2*Zval/r beyond r=  1.1000
All V_l potentials equal beyond r=  2.2154
This should be close to max(r_c) in ps generation
All pots = -2*Zval/r beyond r=  2.2154

VLOCAL1: 99.0% of the norm of Vloc inside      8.845 Ry
VLOCAL1: 99.9% of the norm of Vloc inside     20.157 Ry
atom: Maximum radius for 4*pi*r*r*local-pseudopot. charge    2.67231
atom: Maximum radius for r*vlocal+2*Zval:    2.32897
GHOST: No ghost state for L =  0
GHOST: No ghost state for L =  1
GHOST: No ghost state for L =  2
GHOST: No ghost state for L =  3

KBgen: Kleinman-Bylander projectors:
   l= 0   rc=  2.243238   el= -1.759686   Ekb=**********   kbcos= -0.171774
   l= 1   rc=  2.328968   el= -0.663873   Ekb=-14.506792   kbcos= -0.519897
   l= 2   rc=  2.573941   el=  0.002031   Ekb= -1.137373   kbcos= -0.019581
   l= 3   rc=  2.606321   el=  0.003153   Ekb= -1.013546   kbcos= -0.003122

KBgen: Total number of Kleinman-Bylander projectors:   16
atom: -------------------------------------------------------------------------

atom: SANKEY-TYPE ORBITALS:
atom: Selected multiple-zeta basis: split

SPLIT: Orbitals with angular momentum L= 0

SPLIT: Basis orbitals for state 2s

SPLIT: PAO cut-off radius determined from an
SPLIT: energy shift=  0.002000 Ry

   izeta = 1
                 lambda =    1.000000
                     rc =    4.243912
                 energy =   -1.758270
                kinetic =    3.286084
    potential(screened) =   -5.044353
       potential(ionic) =  -12.921184

   izeta = 2
                 rmatch =    2.187845
              splitnorm =    0.280000
                 energy =   -0.885018
                kinetic =    8.134434
    potential(screened) =   -9.019452
       potential(ionic) =  -17.710645

[...]

SPLIT: Basis orbitals for state 2p

[...]

POLgen: Perturbative polarization orbital with L=  2

POLgen: Polarization orbital for state 2p

   izeta = 1
                     rc =    5.314825
                 energy =    1.970580
                kinetic =    3.886128
    potential(screened) =   -1.915547
       potential(ionic) =   -7.749584
atom: Total number of Sankey-type orbitals: 13

atm_pop: Valence configuration (for local Pseudopot. screening):
 2s( 2.00)
 2p( 4.00)
Vna: chval, zval:    6.00000   6.00000

Vna:  Cut-off radius for the neutral-atom potential:   5.314825

atom: _________________________________________________________________________

[...]

KBgen: Kleinman-Bylander projectors:
   l= 0   rc=  3.417763   el= -1.365098   Ekb= -4.433130   kbcos= -0.707855
   l= 1   rc=  3.375302   el= -0.521201   Ekb=-13.264039   kbcos= -0.535594
   l= 2   rc=  3.872880   el=  0.001991   Ekb= -0.641094   kbcos= -0.062456
   l= 3   rc=  3.970931   el=  0.003093   Ekb= -0.474517   kbcos= -0.018236

[...]

<basis_specs>
Si                   Z=  14    Mass=  28.090        Charge= 0.17977+309
Lmxo=1 Lmxkb= 3    BasisType=split      Semic=F
L=0  Nsemic=0  Cnfigmx=3
          i=1  nzeta=2  polorb=0  (3s)
            splnorm:   0.28000
               vcte:    0.0000
               rinn:    0.0000
               qcoe:    0.0000
               qyuk:    0.0000
               qwid:   0.10000E-01
                rcs:    0.0000      0.0000
            lambdas:    1.0000      1.0000
L=1  Nsemic=0  Cnfigmx=3
          i=1  nzeta=2  polorb=1  (3p)
            splnorm:   0.28000
               vcte:    0.0000
               rinn:    0.0000
               qcoe:    0.0000
               qyuk:    0.0000
               qwid:   0.10000E-01
                rcs:    0.0000      0.0000
            lambdas:    1.0000      1.0000
L=0  Nkbl=1  erefs: 0.17977+309
L=1  Nkbl=1  erefs: 0.17977+309
L=2  Nkbl=1  erefs: 0.17977+309
L=3  Nkbl=1  erefs: 0.17977+309
</basis_specs>

[...]

KBgen: Kleinman-Bylander projectors:
   l= 0   rc=  3.075247   el= -0.794092   Ekb=  5.879390   kbcos=  0.167461
   l= 1   rc=  3.153101   el= -0.300068   Ekb=  2.642817   kbcos=  0.058301
   l= 2   rc=  3.273594   el=  0.001958   Ekb= -1.185135   kbcos= -0.104411
   l= 3   rc=  3.232927   el=  0.003046   Ekb= -0.497174   kbcos= -0.015889

[...]

SPLIT: Basis orbitals for state 3p

[...]

POLgen: Polarization orbital for state 3p

[...]

atm_pop: Valence configuration (for local Pseudopot. screening):
 3s( 2.00)
 3p( 2.00)
Vna: chval, zval:    4.00000   4.00000

[...]

<basis_specs>
H                    Z=   1    Mass=  1.0100        Charge= 0.17977+309
Lmxo=0 Lmxkb= 2    BasisType=split      Semic=F
L=0  Nsemic=0  Cnfigmx=1
          i=1  nzeta=2  polorb=1  (1s)
            splnorm:   0.62000
               vcte:    0.0000
               rinn:    0.0000
               qcoe:    0.0000
               qyuk:    0.0000
               qwid:   0.10000E-01
                rcs:    0.0000      0.0000
            lambdas:    1.0000      1.0000
L=0  Nkbl=1  erefs: 0.17977+309
L=1  Nkbl=1  erefs: 0.17977+309
L=2  Nkbl=1  erefs: 0.17977+309
</basis_specs>

atom: Called for H                     (Z =   1)

read_vps: Pseudopotential generation method:
read_vps: ATM4.2.7  Troullier-Martins
Valence charge for ps generation:    1.00000

xc_check: Exchange-correlation functional:
xc_check: GGA Perdew, Burke & Ernzerhof 1996
V l=0 = -2*Zval/r beyond r=  0.0098
V l=1 = -2*Zval/r beyond r=  0.5817
V l=2 = -2*Zval/r beyond r=  1.9372
[...]
   scf:   31    -4146.703561    -4146.703561    -4146.703561  0.000000 -3.775564  0.000001
     spin moment: S , {S} =    0.00000   0.00000   0.00000  -0.00000

SCF Convergence by DM+H criterion
max |DM_out - DM_in|         :     0.0000001937
max |H_out - H_in|      (eV) :     0.0000007063
SCF cycle converged after 31 iterations

Using DM_out to compute the final energy and forces
No. of atoms with KB's overlaping orbs in proc 0. Max # of overlaps:      29     170

siesta: E_KS(eV) =            -4146.7036

siesta: E_KS - E_eggbox =     -4146.7036
     spin moment: S , {S} =    0.00000   0.00000   0.00000  -0.00000

siesta: Atomic forces (eV/Ang):
     1    1.178651   -2.220117   -0.000000
     2   -0.001471    0.027057    0.000000
     3    0.687691   -0.317210    0.000000
     4    0.650393   -0.017451   -0.000000
     5    0.036369   -0.080377    0.000000
     6    1.711010    0.666419    0.000000
     7    0.041309   -0.229091   -0.000000
     8   -0.359873    0.253608    0.000000
     9   -0.142054    1.138332    0.000000
    10   -0.876799    0.336573   -0.000000
    11   -0.018571   -0.018403   -0.000000
    12   -0.287847   -0.241446   -0.000000
    13    0.039815    0.006455    0.000000
    14    0.251029   -0.127863    0.000000
    15   -1.196741   -0.804589   -0.000000
    16   -0.087734    0.194907    0.000000
    17    0.881734   -1.004832    0.000000
    18   -0.192723    0.178036   -0.000000
    19   -0.188423   -1.077873    0.000000
    20   -0.017982   -0.367515    0.000000
    21   -0.263977    0.905109   -0.000000
    22   -2.061862   -0.936802   -0.000000
    23    0.214693    0.466732    0.000000
    24    0.144550   -0.084834    0.000000
    25    0.107987    0.009885   -0.000000
    26   -0.235764   -0.178951   -0.000000
    27    1.533968    1.291147   -0.000000
    28    3.967932    0.757966    0.000000
    29   -0.012685    0.129542   -0.000000
   Tot    5.502623   -1.345586    0.000000
   Max    3.967932
   Res    0.722728    sqrt( Sum f_i^2 / 3N )
   Max    3.967932    constrained

Stress tensor Voigt[x,y,z,yz,xz,xy] (kbar):        0.27        1.73       -0.10        0.00       -0.00        1.55
(Free)E + p*V (eV/cell)    -4148.6779
Target enthalpy (eV/cell)    -4146.7036

mulliken: Atomic and Orbital Populations:

Species: O

Atom      Orb        Charge      Spin       Svec
    1  7 2pz       -0.00804   0.00000     -0.000   0.000   0.000
    1  9 3Pdxy      0.00673   0.00000      0.000  -0.000   0.000
    1 10 3Pdyz      0.00878   0.00000      0.000   0.000   0.000
    1 11 3Pdz2      0.00150   0.00000     -0.000  -0.000  -0.000
    1 12 3Pdxz      0.00033   0.00000     -0.000   0.000   0.000
    1 13 3Pdx2-y2   0.00675   0.00000     -0.000  -0.000  -0.000
    1     Total     6.48722   0.00000     -0.000  -0.000  -0.000

   28  7 2pz       -0.00694   0.00000     -0.000   0.000   0.000
   28  9 3Pdxy      0.00625   0.00000      0.000   0.000   0.000
   28 10 3Pdyz      0.00952   0.00000     -0.000   0.000  -0.000
   28 11 3Pdz2      0.00119   0.00000      0.000   0.000  -0.000
   28 12 3Pdxz     -0.00019   0.00000     -0.000  -0.000  -0.000
   28 13 3Pdx2-y2   0.00762   0.00000      0.000  -0.000   0.000
   28     Total     6.49446   0.00000      0.000   0.000  -0.000

Total              12.98169   0.00000      0.000   0.000  -0.000

[...]

Atom      Orb        Charge      Spin       Svec
    2  9 3Pdxy      0.00837   0.00000     -0.000   0.000   0.000
    2 10 3Pdyz      0.01097   0.00000      0.000  -0.000   0.000
    2 11 3Pdz2      0.00194   0.00000      0.000  -0.000   0.000
    2 12 3Pdxz      0.00759   0.00000     -0.000   0.000   0.000
    2 13 3Pdx2-y2   0.00907   0.00000     -0.000   0.000  -0.000
    2     Total     5.37161   0.00000     -0.000   0.000  -0.000

    3  9 3Pdxy      0.00391   0.00000      0.000   0.000   0.000
    3 10 3Pdyz      0.00410   0.00000      0.000  -0.000  -0.000
    3 11 3Pdz2      0.00072   0.00000     -0.000  -0.000   0.000
    3 12 3Pdxz      0.00275   0.00000     -0.000   0.000  -0.000
    3 13 3Pdx2-y2   0.00273   0.00000     -0.000  -0.000  -0.000
    3     Total     5.53326   0.00000      0.000  -0.000  -0.000

[...]

Atom      Orb        Charge      Spin       Svec
    7  9 3Pdxy      0.24545   0.00000      0.000  -0.000   0.000
    7 10 3Pdyz      0.02915   0.00000     -0.000  -0.000   0.000
    7 11 3Pdz2      0.01172   0.00000     -0.000   0.000   0.000
    7 12 3Pdxz      0.14553   0.00000      0.000  -0.000  -0.000
    7 13 3Pdx2-y2   0.11288   0.00000      0.000   0.000   0.000
    7     Total     3.84520   0.00000     -0.000  -0.000   0.000

    8  5 3px       -0.02964   0.00000      0.000  -0.000   0.000
    8  9 3Pdxy      0.24648   0.00000     -0.000   0.000   0.000
    8 10 3Pdyz      0.11222   0.00000     -0.000   0.000  -0.000
    8 11 3Pdz2      0.01434   0.00000      0.000  -0.000   0.000
    8 12 3Pdxz      0.15401   0.00000     -0.000   0.000   0.000
    8 13 3Pdx2-y2   0.20058   0.00000     -0.000  -0.000  -0.000
    8     Total     3.65907   0.00000      0.000   0.000   0.000

[...]

   20  9 3Pdxy      0.09984   0.00000     -0.000   0.000  -0.000
   20 10 3Pdyz      0.13313   0.00000     -0.000  -0.000  -0.000
   20 11 3Pdz2      0.00738   0.00000     -0.000  -0.000   0.000
   20 12 3Pdxz      0.02685   0.00000     -0.000   0.000   0.000
   20 13 3Pdx2-y2   0.17269   0.00000      0.000  -0.000   0.000
   20     Total     3.50880   0.00000     -0.000  -0.000  -0.000

[...]

Species: H

Atom      Orb        Charge      Spin       Svec
   12  3 2Ppy       0.02904   0.00000      0.000   0.000  -0.000
   12  4 2Ppz       0.03294   0.00000      0.000  -0.000  -0.000
   12  5 2Ppx       0.02339   0.00000      0.000   0.000   0.000
   12     Total     0.75955   0.00000     -0.000   0.000   0.000

   13  3 2Ppy       0.01808   0.00000     -0.000  -0.000  -0.000
   13  4 2Ppz       0.02013   0.00000      0.000   0.000   0.000
   13  5 2Ppx       0.03509   0.00000      0.000   0.000   0.000
   13     Total     1.18821   0.00000     -0.000  -0.000  -0.000

[...]

   29  3 2Ppy       0.02508   0.00000      0.000  -0.000  -0.000
   29  4 2Ppz       0.03453   0.00000     -0.000  -0.000  -0.000
   29  5 2Ppx       0.02439   0.00000      0.000   0.000   0.000
   29     Total     0.75709   0.00000     -0.000   0.000   0.000

Total              98.00000   0.00000      0.000   0.000  -0.000

siesta: Eigenvalues (eV):
ik =     1
  -21.9294  -21.9294  -21.7760  -21.7760  -21.5692  -21.5692  -21.4741  -21.4741  -21.2189  -21.2189
  -21.0852  -21.0852  -20.7520  -20.7520  -19.7649  -19.7649  -19.4320  -19.4320  -19.3542  -19.3542
  -14.7625  -14.7625  -13.8423  -13.8423  -13.3304  -13.3304  -13.1129  -13.1129  -13.0701  -13.0701
  -12.8375  -12.8375  -12.7049  -12.7049  -12.3533  -12.3533  -12.3379  -12.3379  -12.0248  -12.0248
  -11.3545  -11.3545  -10.8186  -10.8186  -10.7125  -10.7125  -10.6603  -10.6603  -10.1200  -10.1200
   -9.5654   -9.5654   -9.1893   -9.1893   -8.8517   -8.8517   -8.7054   -8.7054   -8.6669   -8.6669
   -8.5741   -8.5741   -8.4320   -8.4320   -8.1468   -8.1468   -7.7962   -7.7962   -7.7256   -7.7256
   -7.6448   -7.6448   -7.3273   -7.3273   -7.2525   -7.2525   -6.8078   -6.8078   -6.7958   -6.7958
   -6.5630   -6.5630   -6.4971   -6.4971   -6.1593   -6.1593   -6.1116   -6.1116   -6.0948   -6.0948
   -5.8898   -5.8898   -5.7023   -5.7023   -5.4936   -5.4936   -4.2999   -4.2999   -3.2520   -3.2520
   -2.3166   -2.3166   -2.3086   -2.3086   -2.2197   -2.2197   -1.8551   -1.8551   -1.8474   -1.8474
   -1.8134   -1.8134   -1.7937   -1.7937   -1.5822   -1.5822   -1.4573   -1.4573   -1.0428   -1.0428
   -0.9508   -0.9508   -0.7638   -0.7638   -0.3574   -0.3574   -0.2336   -0.2336    0.0813    0.0813
    0.4456    0.4456    0.4563    0.4563    0.5925    0.5925    0.7358    0.7358    0.8375    0.8375
    1.0665    1.0665    1.2417    1.2417    1.3446    1.3446    1.4278    1.4278    1.4701    1.4701
    1.7174    1.7174    1.8717    1.8717    1.9732    1.9732    2.3880    2.3880    2.7530    2.7530
    2.7590    2.7590    2.8252    2.8252    2.9370    2.9370    3.2411    3.2411    3.4180    3.4180
    3.4529    3.4529    3.8072    3.8072    3.9413    3.9413    4.0744    4.0744    4.3907    4.3907
    4.3983    4.3983    4.5413    4.5413    4.5790    4.5790    4.6282    4.6282    4.8800    4.8800
    4.9410    4.9410    5.0696    5.0696    5.2736    5.2736    5.5078    5.5078    5.6592    5.6592
    5.7519    5.7519    5.8144    5.8144    5.9949    5.9949    6.0743    6.0743    6.1776    6.1776
    6.2289    6.2289    6.3668    6.3668    6.5862    6.5862    6.7505    6.7505    6.8430    6.8430
    7.0288    7.0288    7.2209    7.2209    7.4385    7.4385    7.6087    7.6087    7.7588    7.7588
    7.8526    7.8526    8.0552    8.0552    8.0691    8.0691    8.2817    8.2817    8.3736    8.3736
    8.6077    8.6077    8.7281    8.7281    8.8190    8.8190    8.9429    8.9429    9.2265    9.2265
    9.2667    9.2667    9.3853    9.3853    9.8005    9.8005    9.8359    9.8359    9.8537    9.8537
   10.0470   10.0470   10.1560   10.1560   10.4664   10.4664   10.8422   10.8422   11.0061   11.0061
   11.1260   11.1260   11.1744   11.1744   11.1874   11.1874   11.7534   11.7534   11.8342   11.8342
   11.9435   11.9435   12.0545   12.0545   12.3774   12.3774   12.4603   12.4603   12.5352   12.5352
   12.6971   12.6971   12.7296   12.7296   13.4802   13.4802   13.5072   13.5072   13.6937   13.6937
   13.8709   13.8709   14.0407   14.0407   14.2998   14.2998   14.6238   14.6238   14.8598   14.8598
   14.8815   14.8815   15.3081   15.3081   16.0078   16.0078   16.4669   16.4669   16.6529   16.6529
   16.9761   16.9761   17.5036   17.5036   17.5895   17.5895   18.4090   18.4090   18.4430   18.4430
   18.5794   18.5794   19.0378   19.0378   19.4310   19.4310   19.9932   19.9932   20.2298   20.2298
   20.9093   20.9093   21.3439   21.3439   21.8522   21.8522   22.0708   22.0708   22.5553   22.5553
   23.1455   23.1455   23.4537   23.4537   23.7673   23.7673   23.9948   23.9948   24.0314   24.0314
   24.9092   24.9092   25.2408   25.2408   26.0805   26.0805   26.9143   26.9143   27.8999   27.8999
   28.8054   28.8054   28.9987   28.9987   29.1521   29.1521   29.5092   29.5092   29.8018   29.8018
   30.1264   30.1264   30.3425   30.3425   30.5917   30.5917   30.8715   30.8715   31.0070   31.0070
   31.0915   31.0915   31.2907   31.2907   31.5822   31.5822   32.1125   32.1125   32.2354   32.2354
   33.4389   33.4389   33.9877   33.9877   34.5470   34.5470   34.6187   34.6187   34.6782   34.6782
   34.8552   34.8552   35.0951   35.0951   35.3845   35.3845   35.6877   35.6877   35.7336   35.7336
   36.9584   36.9584   37.1948   37.1948   37.2981   37.2981   37.4410   37.4410   38.0029   38.0029
   38.4353   38.4353   38.8676   38.8676   39.2738   39.2738   39.6011   39.6011   40.1065   40.1065
   40.4833   40.4833   40.5611   40.5611   40.8092   40.8092   40.9015   40.9015   41.5104   41.5104
   41.8153   41.8153   42.3308   42.3308   42.8280   42.8280   42.9771   42.9771   43.0294   43.0294
   43.4028   43.4028   43.8194   43.8194   44.1816   44.1816   44.2495   44.2495   44.4254   44.4254
   44.7150   44.7150   44.9938   44.9938   45.2128   45.2128   45.7019   45.7019   46.1080   46.1080
   46.7112   46.7112   47.2331   47.2331   47.3023   47.3023   48.6027   48.6027   49.5461   49.5461
   49.5622   49.5622   50.2529   50.2529   50.6097   50.6097   50.6703   50.6703   51.0776   51.0776
   51.3902   51.3902   52.1941   52.1941   52.4306   52.4306   53.2817   53.2817   54.2316   54.2316
   54.6565   54.6565   54.7493   54.7493   55.4782   55.4782   55.7938   55.7938   56.2159   56.2159
   56.5299   56.5299   56.5678   56.5678   56.8195   56.8195   58.4114   58.4114   58.8398   58.8398
   59.5280   59.5280   60.4039   60.4039   60.6319   60.6319   61.2617   61.2617   61.7832   61.7832
   62.0220   62.0220   62.3649   62.3649   62.7404   62.7404   64.6312   64.6312   66.5140   66.5140
   67.2733   67.2733   67.5721   67.5721   68.1637   68.1637   69.1439   69.1439   70.8935   70.8935
   74.2792   74.2792   81.2176   81.2176   91.2746   91.2746   91.9396   91.9396   93.5331   93.5331
   98.5192   98.5192   99.5579   99.5579  100.1343  100.1343  103.4917  103.4917  104.1622  104.1622
  110.4756  110.4756  112.4645  112.4645  123.7670  123.7670  125.8185  125.8185  130.6536  130.6536
  135.4613  135.4613  138.7325  138.7325
siesta: Fermi energy =      -3.775564 eV

siesta: Program's energy decomposition (eV):
siesta: Ebs     =     -1133.382743
siesta: Eions   =      3585.165840
siesta: Ena     =       382.014856
siesta: Ekin    =      2903.243187
siesta: Enl     =     -2788.337839
siesta: Eso     =        -0.004278
siesta: Edftu   =         0.000000
siesta: DEna    =        47.150925
siesta: DUscf   =        14.221524
siesta: DUext   =         0.000000
siesta: Exc     =     -1119.826098
siesta: eta*DQ  =         0.000000
siesta: Emadel  =         0.000000
siesta: Emeta   =         0.000000
siesta: Emolmec =         0.000000
siesta: Ekinion =         0.000000
siesta: Eharris =     -4146.703561
siesta: Etot    =     -4146.703561
siesta: FreeEng =     -4146.703561

siesta: Final energy (eV):
siesta:  Band Struct. =   -1133.382743
siesta:       Kinetic =    2903.243187
siesta:       Hartree =    8403.481345
siesta:       Edftu   =       0.000000
siesta:       Eso     =      -0.004278
siesta:    Ext. field =       0.000000
siesta:   Exch.-corr. =   -1119.826098
siesta:  Ion-electron =  -19389.928270
siesta:       Ion-ion =    5056.330553
siesta:       Ekinion =       0.000000
siesta:         Total =   -4146.703561
siesta:         Fermi =      -3.775564

siesta: Atomic forces (eV/Ang):
siesta:      1    1.178651   -2.220117   -0.000000
siesta:      2   -0.001471    0.027057    0.000000
siesta:      3    0.687691   -0.317210    0.000000
siesta:      4    0.650393   -0.017451   -0.000000
siesta:      5    0.036369   -0.080377    0.000000
siesta:      6    1.711010    0.666419    0.000000
siesta:      7    0.041309   -0.229091   -0.000000
siesta:      8   -0.359873    0.253608    0.000000
siesta:      9   -0.142054    1.138332    0.000000
siesta:     10   -0.876799    0.336573   -0.000000
siesta:     11   -0.018571   -0.018403   -0.000000
siesta:     12   -0.287847   -0.241446   -0.000000
siesta:     13    0.039815    0.006455    0.000000
siesta:     14    0.251029   -0.127863    0.000000
siesta:     15   -1.196741   -0.804589   -0.000000
siesta:     16   -0.087734    0.194907    0.000000
siesta:     17    0.881734   -1.004832    0.000000
siesta:     18   -0.192723    0.178036   -0.000000
siesta:     19   -0.188423   -1.077873    0.000000
siesta:     20   -0.017982   -0.367515    0.000000
siesta:     21   -0.263977    0.905109   -0.000000
siesta:     22   -2.061862   -0.936802   -0.000000
siesta:     23    0.214693    0.466732    0.000000
siesta:     24    0.144550   -0.084834    0.000000
siesta:     25    0.107987    0.009885   -0.000000
siesta:     26   -0.235764   -0.178951   -0.000000
siesta:     27    1.533968    1.291147   -0.000000
siesta:     28    3.967932    0.757966    0.000000
siesta:     29   -0.012685    0.129542   -0.000000
siesta: ----------------------------------------
siesta:    Tot    5.502623   -1.345586    0.000000

siesta: Stress tensor (static) (eV/Ang**3):
siesta:     0.000169    0.000969   -0.000000
siesta:     0.000969    0.001082   -0.000000
siesta:    -0.000000    0.000000   -0.000060

siesta: Cell volume =       4976.306998 Ang**3

siesta: Pressure (static):
siesta:                Solid            Molecule  Units
siesta:          -0.00000432         -0.00000777  Ry/Bohr**3
siesta:          -0.00039674         -0.00071345  eV/Ang**3
siesta:          -0.63565939         -1.14308561  kBar
(Free)E+ p_basis*V_orbitals  =       -4126.853144
(Free)Eharris+ p_basis*V_orbitals  =       -4126.853144
     spin moment: S , {S} =    0.00000   0.00000   0.00000  -0.00000

siesta: Electric dipole (a.u.)  =    1.618323    0.089812    0.000000
siesta: Electric dipole (Debye) =    4.113369    0.228280    0.000000

cite: Please see "GC.bib" for an exhaustive BiBTeX file.
cite: Please clearly indicate Siesta version in published work: v4.1.5-1-g384057250
cite: This calculation has made use of the following articles
cite: which are encouraged to be cited in a published work.
        Primary SIESTA paper
          DOI: www.doi.org/10.1088/0953-8984/14/11/302
        Spin-orbit coupling (on-site approximation)
          DOI: www.doi.org/10.1088/0953-8984/19/19/489001

WARNING: alloc-realloc-dealloc name mismatch
         Name: atomlist isa
         Node:     0
         Subsequent mismatches will not be reported
>> End of run:  28-JUN-2023  15:34:16
Job completed