 NOTE: Siesta V5 introduces some new defaults for basis-set generation
 NOTE: which might lead to slightly different numerical results.
 NOTE: Please see the manual for full details and compatibility measures.

reinit: Reading from standard input
reinit: Dumping input in INPUT_TMP.50520
************************** Dump of input data file ****************************
# mpirun -np 8 siesta-5 < Thymine.fdf > Thymine.out
SystemLabel      Thymine
NumberOfAtoms    15
NumberOfSpecies  4
%block ChemicalSpeciesLabel
    1    1  H ../../../Pseudos/PBE/H/H.psf
    2    7  N ../../../Pseudos/PBE/N/N.psf
    3   14  Si ../../../Pseudos/PBE/Si/Si.psf
    4    8  O ../../../Pseudos/PBE/O/O.psf
%endblock ChemicalSpeciesLabel
# This overrides Defaults.fdf configuration
MD.Steps                    1000
%block Geometry.Constraints
    atom all 0.0 0.0 1.0 # constrain along z Cartesian vector
    atom [6]
    clear-prev [7, 8, 9]
%endblock
AtomicCoordinatesFormat NotScaledCartesianAng
%block AtomicCoordinatesAndAtomicSpecies
    1.75272380    6.04724099    0.00000000   1       1  H
    0.85023162    5.49134968    0.00000000   2       2  N
   -0.64855363    6.48710289    0.00000000   3       3  Si
   -0.17775410    7.91656090    0.00000000   1       4  H
   -2.57705270    5.46721530    0.00000000   3       5  Si
   -4.88300095    5.79032309    0.00000000   3       6  Si
   -5.34355541    6.58250522   -1.19339296   1       7  H
   -5.34379096    4.35773049   -0.08543086   1       8  H
   -5.34735485    6.41418185    1.28522373   1       9  H
   -2.10992716    3.24283494    0.00000000   3      10  Si
   -3.15334887    2.04630673    0.00000000   4      11  O
   -0.36583553    2.82530237    0.00000000   2      12  N
   -0.17588440    1.77882327    0.00000000   1      13  H
    1.13322252    3.73493473    0.00000000   3      14  Si
    2.54062384    3.02494249    0.00000000   4      15  O
%endblock AtomicCoordinatesAndAtomicSpecies
%include ../../../Defaults.fdf
************************** End of input data file *****************************

reinit: -----------------------------------------------------------------------
reinit: System Name:
reinit: -----------------------------------------------------------------------
reinit: System Label: Thymine
reinit: -----------------------------------------------------------------------

NOTE on units for spin output:
{S} is the spin magnetic moment, in units of the Bohr magneton,
assuming a g-factor for the electron spin of exactly 2.
The spin magnetic moment is then numerically equal to the charge inbalance,
in units of electrons, between the spin-up and -down channels.

initatom: Reading input for the pseudopotentials and atomic orbitals ----------
Species number:   1 Atomic number:    1 Label: H
Species number:   2 Atomic number:    7 Label: N
Species number:   3 Atomic number:   14 Label: Si
Species number:   4 Atomic number:    8 Label: O

Ground state valence configuration (from tables):   1s01  2p00  3d00  4f00
Ground state valence configuration (from tables):   2s02  2p03  3d00  4f00
Ground state valence configuration (from tables):   3s02  3p02  3d00  4f00
Ground state valence configuration (from tables):   2s02  2p04  3d00  4f00

---- Processing specs for species: H
Reading pseudopotential information in formatted form from:
  ../../../Pseudos/PBE/H/H.psf

[...]

---- Processing specs for species: O
Reading pseudopotential information in formatted form from:
  ../../../Pseudos/PBE/O/O.psf

---- Pseudopotential check for H

Pseudopotential generated from a fully relativistic atomic calculation
There are spin-orbit semi-local pseudopotentials available

Pseudized shells:
1s( 1.00) rc: 0.05
Valence configuration for ps generation: (assumed as above)

[...]

Pseudized shells:
2s( 2.00) rc: 1.02
2p( 3.00) rc: 1.36
3d( 0.00) rc: 3.29
Valence configuration for ps generation: (assumed as above)

[...]

Pseudized shells:
3s( 2.00) rc: 1.67
3p( 2.00) rc: 2.22
3d( 0.00) rc: 3.44
Valence configuration for ps generation: (assumed as above)

---- Pseudopotential check for O

Pseudopotential generated from a fully relativistic atomic calculation
There are spin-orbit semi-local pseudopotentials available

Pseudized shells:
2s( 2.00) rc: 1.05
2p( 4.00) rc: 1.02
Valence configuration for ps generation: (assumed as above)
For H, standard SIESTA heuristics set lmxkb to 2
 (one more than the basis l, including polarization orbitals).
Use PS.lmax or PS.KBprojectors blocks to override.
For N, standard SIESTA heuristics set lmxkb to 3
 (one more than the basis l, including polarization orbitals).
Use PS.lmax or PS.KBprojectors blocks to override.
For Si, standard SIESTA heuristics set lmxkb to 3
 (one more than the basis l, including polarization orbitals).
Use PS.lmax or PS.KBprojectors blocks to override.
For O, standard SIESTA heuristics set lmxkb to 3
 (one more than the basis l, including polarization orbitals).
Use PS.lmax or PS.KBprojectors blocks to override.
../../../Pseudos/PBE/H/H.psf pseudopotential only contains V_ls up to l=0 -- lmxkb reset.
../../../Pseudos/PBE/N/N.psf pseudopotential only contains V_ls up to l=2 -- lmxkb reset.
../../../Pseudos/PBE/Si/Si.psf pseudopotential only contains V_ls up to l=2 -- lmxkb reset.
../../../Pseudos/PBE/O/O.psf pseudopotential only contains V_ls up to l=1 -- lmxkb reset.

<basis_specs>
H                    Z=   1    Mass=  1.0080        Charge= 0.17977+309
Lmxo=1 Lmxkb= 0    BasisType=split      Semic=F
L=0  Nsemic=0  Cnfigmx=1
          i=1  nzeta=2  polorb=1  (1s)  (to be polarized perturbatively)
            splnorm:   0.62000
               vcte:    40.000
               rinn:  -0.90000
               qcoe:    0.0000
               qyuk:    0.0000
               qwid:   0.10000E-01
                rcs:    0.0000      0.0000
            lambdas:    1.0000      1.0000
L=1  Nsemic=0  Cnfigmx=2
          i=1  nzeta=0  polorb=0  (2p)  (perturbative polarization orbital) (from 1s)
</basis_specs>

Filter: Requested cutoff:  290.000000 Ry
Using PAO.SplitTailNorm
atom: Called for H                     (Z =   1)
NOTE: H pseudopotential has channels up to l= 0
NOTE: PAOs with higher l will be generated with V_local
Maximum radius (at nrval) set to   50.00000 8518

read_vps: Pseudopotential generation method:
read_vps: ATM4.2.7  Troullier-Martins
Valence charge in pseudo generation:    1.00000

xc_check: Exchange-correlation functional:
xc_check: GGA Perdew, Burke & Ernzerhof 1996
V l=0 = -2*Zval/r beyond r=  0.0513
All V_l potentials equal beyond r=  0.0513
This should be close to max(r_c) in ps generation
All pots = -2*Zval/r beyond r=  0.0513
Using small-core scheme (local charge) for Vlocal

VLOCAL_FROM_CHLOCAL: 99.0% of the norm of Vloc inside  16462.511 Ry
VLOCAL_FROM_CHLOCAL: 99.9% of the norm of Vloc inside  37518.368 Ry
atom: Maximum radius for chlocal:    0.06330
atom: Maximum radius for r*vlocal+2*Zval:    0.05437

KBgen: Kleinman-Bylander projectors:
GHOST: No ghost state for L =  0
KBproj: WARNING: Rc(0)=      0.3107
KBproj: WARNING: Cut off radius for the KB projector too small
   l= 0   rc=  0.310725   el= -0.477181   Ekb=-33.944693   kbcos= -0.005118

KBgen: Total number of Kleinman-Bylander projectors:   1
atom: -------------------------------------------------------------------------

atom: SANKEY-TYPE ORBITALS:
atom: Selected multiple-zeta basis: split

SPLIT: Orbitals with angular momentum L= 0

SPLIT: Basis orbitals for state 1s

SPLIT: PAO cut-off radius determined from an
SPLIT: energy shift=  0.005000 Ry
Split based on tail norm

   izeta = 1
                 lambda =    1.000000
                     rc =    5.772464
                 energy =   -0.471502
                kinetic =    0.941609
    potential(screened) =   -1.413111
       potential(ionic) =   -1.936120
PAO Filter: Cutoff used:  142.10 Ry
PAO Filter: diagnostic kin energy tol:    0.003000 Ry
PAO Filter: Nominal cutoff (before filtering):  107.24 Ry
Filter:    Number of eigenfunctions  of the
           filtering kernel (total, used)= 55 20

   izeta = 2
                 rmatch =    1.661681
              splitnorm =    0.620000
                 energy =    1.741023
                kinetic =    5.838304
    potential(screened) =   -4.097281
       potential(ionic) =   -4.634491
PAO Filter: Cutoff used:  142.10 Ry
PAO Filter: diagnostic kin energy tol:    0.003000 Ry
PAO Filter: Nominal cutoff (before filtering):  829.47 Ry
Filter:    Number of eigenfunctions  of the
           filtering kernel (total, used)= 23  5
*Note: V_local used for l= 1

** Using vlocal for PAOs with L= 1

POLgen: Perturbative polarization orbital with L=  1

POLgen: Polarization orbital for state 1s
*Note: V_local used for lpol= 1

** Using vlocal for PAOs with L= 1
Split based on tail norm

   izeta = 1
                     rc =    5.772464
                 energy =    0.606793
                kinetic =    1.227790
    potential(screened) =   -0.620997
       potential(ionic) =   -1.099517
PAO Filter: diagnostic kin energy tol:    0.003000 Ry
PAO Filter: Nominal cutoff (before filtering):   49.50 Ry
Filter:    Number of eigenfunctions  of the
           filtering kernel (total, used)= 55 20
atom: Total number of Sankey-type orbitals:  5

atm_pop: Valence configuration (for local Pseudopot. screening):
 1s( 1.00)
 2p( 0.00)
Vna: chval, zval:    1.00000   1.00000

Vna:  Cut-off radius for the neutral-atom potential:   5.772464
VNA Filter: diagnostic kinetic energy tol:    0.003000 Ry
VNA Filter: Nominal cutoff (before filtering):21300.87 Ry
VNA Filter: Cutoff used:   290.00 Ry
Filter:    Number of eigenfunctions  of the
           filtering kernel (total, used)= 74 30

atom: _________________________________________________________________________

<basis_specs>
N                    Z=   7    Mass=  14.007        Charge= 0.17977+309
Lmxo=2 Lmxkb= 2    BasisType=split      Semic=F
L=0  Nsemic=0  Cnfigmx=2
          i=1  nzeta=2  polorb=0  (2s)
            splnorm:   0.28000
               vcte:    40.000
               rinn:  -0.90000
               qcoe:    0.0000
               qyuk:    0.0000
               qwid:   0.10000E-01
                rcs:    0.0000      0.0000
            lambdas:    1.0000      1.0000
L=1  Nsemic=0  Cnfigmx=2
          i=1  nzeta=2  polorb=1  (2p)  (to be polarized perturbatively)
            splnorm:   0.28000
               vcte:    40.000
               rinn:  -0.90000
               qcoe:    0.0000
               qyuk:    0.0000
               qwid:   0.10000E-01
                rcs:    0.0000      0.0000
            lambdas:    1.0000      1.0000
L=2  Nsemic=0  Cnfigmx=3
          i=1  nzeta=0  polorb=0  (3d)  (perturbative polarization orbital) (from 2p)
L=0  Nkbl=1  erefs: 0.17977+309
L=1  Nkbl=1  erefs: 0.17977+309
L=2  Nkbl=1  erefs: 0.17977+309
</basis_specs>

Filter: Requested cutoff:  290.000000 Ry
Using PAO.SplitTailNorm
atom: Called for N                     (Z =   7)
Maximum radius (at nrval) set to   50.00000 8518

[...]

KBgen: Kleinman-Bylander projectors:
GHOST: No ghost state for L =  0
   l= 0   rc=  3.286396   el= -1.364990   Ekb= -4.084395   kbcos= -0.707149
GHOST: No ghost state for L =  1
[...]
   scf:    6    -4729.252536    -4729.252536    -4729.252536  0.000000 -5.394332  0.000001
     spin moment: {S} , |S| = {   -0.00000    0.00000    0.00000 }     0.00000
   scf:    7    -4729.252536    -4729.252536    -4729.252536  0.000000 -5.394333  0.000001
     spin moment: {S} , |S| = {   -0.00000    0.00000    0.00000 }     0.00000

[...]

        iscf     Eharris(eV)        E_KS(eV)     FreeEng(eV)     dDmax    Ef(eV) dHmax(eV)
   scf:    1    -4729.251541    -4729.252824    -4729.252824  0.000401 -5.390397  0.009601
     spin moment: {S} , |S| = {   -0.00000    0.00000    0.00000 }     0.00000
   scf:    2    -4729.252642    -4729.252772    -4729.252772  0.000429 -5.387155  0.028624
     spin moment: {S} , |S| = {   -0.00000    0.00000    0.00000 }     0.00000
   scf:    3    -4729.252843    -4729.252830    -4729.252830  0.000317 -5.389861  0.002483
     spin moment: {S} , |S| = {   -0.00000    0.00000    0.00000 }     0.00000
   scf:    4    -4729.252830    -4729.252830    -4729.252830  0.000017 -5.389943  0.001115
     spin moment: {S} , |S| = {   -0.00000    0.00000    0.00000 }     0.00000
   scf:    5    -4729.252830    -4729.252830    -4729.252830  0.000008 -5.389981  0.000425
     spin moment: {S} , |S| = {   -0.00000    0.00000    0.00000 }     0.00000
   scf:    6    -4729.252830    -4729.252830    -4729.252830  0.000004 -5.389990  0.000078
     spin moment: {S} , |S| = {   -0.00000    0.00000    0.00000 }     0.00000
   scf:    7    -4729.252830    -4729.252830    -4729.252830  0.000002 -5.389984  0.000019
     spin moment: {S} , |S| = {   -0.00000    0.00000    0.00000 }     0.00000
   scf:    8    -4729.252830    -4729.252830    -4729.252830  0.000000 -5.389984  0.000011
     spin moment: {S} , |S| = {   -0.00000    0.00000    0.00000 }     0.00000
   scf:    9    -4729.252830    -4729.252830    -4729.252830  0.000000 -5.389984  0.000004
     spin moment: {S} , |S| = {   -0.00000    0.00000    0.00000 }     0.00000
   scf:   10    -4729.252830    -4729.252830    -4729.252830  0.000000 -5.389984  0.000001
     spin moment: {S} , |S| = {   -0.00000    0.00000    0.00000 }     0.00000
   scf:   11    -4729.252830    -4729.252830    -4729.252830  0.000000 -5.389984  0.000001
     spin moment: {S} , |S| = {   -0.00000    0.00000    0.00000 }     0.00000

[...]

        iscf     Eharris(eV)        E_KS(eV)     FreeEng(eV)     dDmax    Ef(eV) dHmax(eV)
   scf:    1    -4729.252955    -4729.252929    -4729.252929  0.000131 -5.397075  0.003152
     spin moment: {S} , |S| = {   -0.00000    0.00000    0.00000 }     0.00000
   scf:    2    -4729.252919    -4729.252926    -4729.252926  0.000128 -5.395793  0.008477
     spin moment: {S} , |S| = {   -0.00000    0.00000    0.00000 }     0.00000
   scf:    3    -4729.252930    -4729.252929    -4729.252929  0.000092 -5.396798  0.000808
     spin moment: {S} , |S| = {   -0.00000    0.00000    0.00000 }     0.00000
   scf:    4    -4729.252929    -4729.252929    -4729.252929  0.000005 -5.396782  0.000328
     spin moment: {S} , |S| = {   -0.00000    0.00000    0.00000 }     0.00000
   scf:    5    -4729.252929    -4729.252929    -4729.252929  0.000002 -5.396785  0.000141
     spin moment: {S} , |S| = {   -0.00000    0.00000    0.00000 }     0.00000
   scf:    6    -4729.252929    -4729.252929    -4729.252929  0.000001 -5.396787  0.000041
     spin moment: {S} , |S| = {   -0.00000    0.00000    0.00000 }     0.00000
   scf:    7    -4729.252929    -4729.252929    -4729.252929  0.000001 -5.396788  0.000007
     spin moment: {S} , |S| = {   -0.00000    0.00000    0.00000 }     0.00000
   scf:    8    -4729.252929    -4729.252929    -4729.252929  0.000000 -5.396788  0.000003
     spin moment: {S} , |S| = {   -0.00000    0.00000    0.00000 }     0.00000
   scf:    9    -4729.252929    -4729.252929    -4729.252929  0.000000 -5.396788  0.000001
     spin moment: {S} , |S| = {   -0.00000    0.00000    0.00000 }     0.00000
   scf:   10    -4729.252929    -4729.252929    -4729.252929  0.000000 -5.396788  0.000000
     spin moment: {S} , |S| = {   -0.00000    0.00000    0.00000 }     0.00000

[...]

        iscf     Eharris(eV)        E_KS(eV)     FreeEng(eV)     dDmax    Ef(eV) dHmax(eV)
   scf:    1    -4729.253089    -4729.252967    -4729.252967  0.000041 -5.399306  0.002352
     spin moment: {S} , |S| = {   -0.00000    0.00000    0.00000 }     0.00000
   scf:    2    -4729.252961    -4729.252965    -4729.252965  0.000100 -5.399332  0.009087
     spin moment: {S} , |S| = {   -0.00000    0.00000    0.00000 }     0.00000
   scf:    3    -4729.252967    -4729.252967    -4729.252967  0.000080 -5.399314  0.000274
     spin moment: {S} , |S| = {   -0.00000    0.00000    0.00000 }     0.00000
   scf:    4    -4729.252967    -4729.252967    -4729.252967  0.000002 -5.399306  0.000151
     spin moment: {S} , |S| = {   -0.00000    0.00000    0.00000 }     0.00000
   scf:    5    -4729.252967    -4729.252967    -4729.252967  0.000001 -5.399295  0.000049
     spin moment: {S} , |S| = {   -0.00000    0.00000    0.00000 }     0.00000
   scf:    6    -4729.252967    -4729.252967    -4729.252967  0.000000 -5.399295  0.000023
     spin moment: {S} , |S| = {   -0.00000    0.00000    0.00000 }     0.00000
   scf:    7    -4729.252967    -4729.252967    -4729.252967  0.000000 -5.399296  0.000005
     spin moment: {S} , |S| = {   -0.00000    0.00000    0.00000 }     0.00000
   scf:    8    -4729.252967    -4729.252967    -4729.252967  0.000000 -5.399296  0.000002
     spin moment: {S} , |S| = {   -0.00000    0.00000    0.00000 }     0.00000
   scf:    9    -4729.252967    -4729.252967    -4729.252967  0.000000 -5.399297  0.000000
     spin moment: {S} , |S| = {   -0.00000    0.00000    0.00000 }     0.00000

[...]

        iscf     Eharris(eV)        E_KS(eV)     FreeEng(eV)     dDmax    Ef(eV) dHmax(eV)
   scf:    1    -4729.253025    -4729.252967    -4729.252967  0.000008 -5.399062  0.000287
     spin moment: {S} , |S| = {   -0.00000    0.00000    0.00000 }     0.00000
   scf:    2    -4729.252967    -4729.252967    -4729.252967  0.000009 -5.399136  0.000378
     spin moment: {S} , |S| = {   -0.00000    0.00000    0.00000 }     0.00000
   scf:    3    -4729.252967    -4729.252967    -4729.252967  0.000006 -5.399086  0.000066
     spin moment: {S} , |S| = {   -0.00000    0.00000    0.00000 }     0.00000
   scf:    4    -4729.252967    -4729.252967    -4729.252967  0.000000 -5.399090  0.000032
     spin moment: {S} , |S| = {   -0.00000    0.00000    0.00000 }     0.00000
   scf:    5    -4729.252967    -4729.252967    -4729.252967  0.000000 -5.399092  0.000011
     spin moment: {S} , |S| = {   -0.00000    0.00000    0.00000 }     0.00000
   scf:    6    -4729.252967    -4729.252967    -4729.252967  0.000000 -5.399092  0.000001
     spin moment: {S} , |S| = {   -0.00000    0.00000    0.00000 }     0.00000
   scf:    7    -4729.252967    -4729.252967    -4729.252967  0.000000 -5.399092  0.000001
     spin moment: {S} , |S| = {   -0.00000    0.00000    0.00000 }     0.00000

[...]

                        Begin Broyden opt. move =    155

outcoor: Atomic coordinates (Ang):
    1.69697436    5.98541945    0.00000000   1       1  H
    0.81462505    5.42445665    0.00000000   2       2  N
   -0.68649759    6.40145470    0.00000000   3       3  Si
   -0.24278229    7.82150906    0.00000000   1       4  H
   -2.59839377    5.39783341    0.00000000   3       5  Si
   -4.88300095    5.79032309    0.00000000   3       6  Si
   -5.33265064    6.58066312   -1.19339296   1       7  H
   -5.35625155    4.37307155   -0.08543086   1       8  H
   -5.30688848    6.42845955    1.28522373   1       9  H
   -2.11489670    3.19889884    0.00000000   3      10  Si
   -3.23168363    2.08414035    0.00000000   4      11  O
   -0.36017343    2.79406425    0.00000000   2      12  N
   -0.17829409    1.76202334    0.00000000   1      13  H
    1.14746516    3.69068461    0.00000000   3      14  Si
    2.58954508    3.06831084    0.00000000   4      15  O

outcell: Unit cell vectors (Ang):
       15.371982    0.000000    0.000000
        0.000000   13.471755    0.000000
        0.000000    0.000000    9.446722

outcell: Cell vector modules (Ang)   :   15.371982   13.471755    9.446722
outcell: Cell angles (23,13,12) (deg):     90.0000     90.0000     90.0000
outcell: Cell volume (Ang**3)        :   1956.2987
<dSpData1D:S at geom step 155
  <sparsity:sparsity for geom step 155
    nrows_g=147 nrows=8 sparsity=.0525 nnzs=1134, refcount: 8>
  <dData1D:(new from dSpData1D) n=1134, refcount: 1>
refcount: 1>
new_DM -- step:   156
Re-using DM from previous geometries...
Number of DMs in history: 1
 DM extrapolation coefficients:
1   1.00000
New DM after history re-use:
<dSpData2D:SpM extrapolated using coords
  <sparsity:sparsity for geom step 155
    nrows_g=147 nrows=8 sparsity=.0525 nnzs=1134, refcount: 10>
  <dData2D:(temp array for extrapolation) n=1134 m=8, refcount: 1>
refcount: 1>
     spin moment: {S} , |S| = {   -0.00000    0.00000    0.00000 }     0.00000

InitMesh: MESH = 162 x 144 x 100 = 2332800
InitMesh: Mesh cutoff (required, used) =   300.000   306.953 Ry
New grid distribution [1]: sub = 2
New grid distribution [2]: sub = 2
New grid distribution [3]: sub = 2
Setting up quadratic distribution...

        iscf     Eharris(eV)        E_KS(eV)     FreeEng(eV)     dDmax    Ef(eV) dHmax(eV)
   scf:    1    -4729.253204    -4729.252975    -4729.252975  0.000048 -5.399525  0.001927
     spin moment: {S} , |S| = {   -0.00000    0.00000    0.00000 }     0.00000
   scf:    2    -4729.252969    -4729.252973    -4729.252973  0.000076 -5.400762  0.005967
     spin moment: {S} , |S| = {   -0.00000    0.00000    0.00000 }     0.00000
   scf:    3    -4729.252976    -4729.252975    -4729.252975  0.000062 -5.399853  0.000161
     spin moment: {S} , |S| = {   -0.00000    0.00000    0.00000 }     0.00000
   scf:    4    -4729.252975    -4729.252975    -4729.252975  0.000001 -5.399876  0.000075
     spin moment: {S} , |S| = {   -0.00000    0.00000    0.00000 }     0.00000
   scf:    5    -4729.252975    -4729.252975    -4729.252975  0.000001 -5.399885  0.000032
     spin moment: {S} , |S| = {   -0.00000    0.00000    0.00000 }     0.00000
   scf:    6    -4729.252975    -4729.252975    -4729.252975  0.000000 -5.399886  0.000015
     spin moment: {S} , |S| = {   -0.00000    0.00000    0.00000 }     0.00000
   scf:    7    -4729.252975    -4729.252975    -4729.252975  0.000000 -5.399887  0.000002
     spin moment: {S} , |S| = {   -0.00000    0.00000    0.00000 }     0.00000
   scf:    8    -4729.252975    -4729.252975    -4729.252975  0.000000 -5.399887  0.000001
     spin moment: {S} , |S| = {   -0.00000    0.00000    0.00000 }     0.00000

SCF Convergence by DM+H criterion
max |DM_out - DM_in|         :     0.0000000421
max |H_out - H_in|      (eV) :     0.0000009881
SCF cycle converged after 8 iterations

Using DM_out to compute the final energy and forces

siesta: E_KS(eV) =            -4729.2530
     spin moment: {S} , |S| = {   -0.00000    0.00000    0.00000 }     0.00000

siesta: Atomic forces (eV/Ang):
     1   -0.002547   -0.000026    0.000627
     2    0.003721   -0.001128    0.001122
     3    0.002829   -0.001426   -0.000769
     4    0.006601   -0.004598    0.011165
     5    0.001781    0.000818   -0.020973
     6    0.049670    0.014532   -0.054637
     7    0.002848   -0.004801   -0.774650
     8    0.007667    0.000580   -0.012148
     9   -0.006432   -0.002181    0.857024
    10   -0.000420   -0.000762   -0.005410
    11   -0.001058    0.001184   -0.003271
    12   -0.000829   -0.000671    0.001128
    13    0.000751   -0.003541    0.000603
    14   -0.000309   -0.003053   -0.000242
    15    0.000716   -0.004557    0.000021
   Tot    0.064990   -0.009629   -0.000410
   Max    0.857024
   Res    0.172645    sqrt( Sum f_i^2 / 3N )
   Max    0.007667    constrained

Stress tensor Voigt[x,y,z,yz,xz,xy] (kbar):        0.29        0.02       -1.69       -0.00        0.01       -0.17
(Free)E + p*V (eV/cell)    -4728.6866
Target enthalpy (eV/cell)    -4729.2530

outcoor: Relaxed atomic coordinates (Ang):
    1.69697436    5.98541945    0.00000000   1       1  H
    0.81462505    5.42445665    0.00000000   2       2  N
   -0.68649759    6.40145470    0.00000000   3       3  Si
   -0.24278229    7.82150906    0.00000000   1       4  H
   -2.59839377    5.39783341    0.00000000   3       5  Si
   -4.88300095    5.79032309    0.00000000   3       6  Si
   -5.33265064    6.58066312   -1.19339296   1       7  H
   -5.35625155    4.37307155   -0.08543086   1       8  H
   -5.30688848    6.42845955    1.28522373   1       9  H
   -2.11489670    3.19889884    0.00000000   3      10  Si
   -3.23168363    2.08414035    0.00000000   4      11  O
   -0.36017343    2.79406425    0.00000000   2      12  N
   -0.17829409    1.76202334    0.00000000   1      13  H
    1.14746516    3.69068461    0.00000000   3      14  Si
    2.58954508    3.06831084    0.00000000   4      15  O

siesta: Program's energy decomposition (eV):
siesta: Ebs     =      -558.376051
siesta: Eions   =      5476.563807
siesta: Ena     =      1269.638499
siesta: Ekin    =      1323.846536
siesta: Enl(+so)=      -577.428255
siesta: Eso(nil)=         0.000000
siesta: Edftu   =         0.000000
siesta: DEna    =       -10.935058
siesta: DUscf   =         5.840075
siesta: DUext   =         0.000000
siesta: Ex      =     -1188.111366
siesta: Ec      =       -75.539600
siesta: Exc     =     -1263.650965
siesta: EbV     =         0.000000
siesta: eta*DQ  =         0.000000
siesta: Emadel  =         0.000000
siesta: Emeta   =         0.000000
siesta: Emolmec =         0.000000
siesta: Ekinion =         0.000000
siesta: Eharris =     -4729.252975
siesta: Etot    =     -4729.252975
siesta: FreeEng =     -4729.252975

siesta: Final energy (eV):
siesta:  Band Struct. =    -558.376051
siesta:       Kinetic =    1323.846536
siesta:       Hartree =    2908.843493
siesta:         Edftu =       0.000000
siesta:      Eso(nil) =       0.000000
siesta:    Ext. field =       0.000000
siesta:         Exch. =   -1188.111366
siesta:         Corr. =     -75.539600
siesta:     Bulk bias =       0.000000
siesta:   Exch.-corr. =   -1263.650965
siesta:  Ion-electron =   -6981.924095
siesta:       Ion-ion =    -716.367944
siesta:       Ekinion =       0.000000
siesta: D3 dispersion =       0.000000
siesta:         Total =   -4729.252975
siesta:         Fermi =      -5.399887

siesta: Atomic forces (eV/Ang):
siesta:      1   -0.002547   -0.000026    0.000627
siesta:      2    0.003721   -0.001128    0.001122
siesta:      3    0.002829   -0.001426   -0.000769
siesta:      4    0.006601   -0.004598    0.011165
siesta:      5    0.001781    0.000818   -0.020973
siesta:      6    0.049670    0.014532   -0.054637
siesta:      7    0.002848   -0.004801   -0.774650
siesta:      8    0.007667    0.000580   -0.012148
siesta:      9   -0.006432   -0.002181    0.857024
siesta:     10   -0.000420   -0.000762   -0.005410
siesta:     11   -0.001058    0.001184   -0.003271
siesta:     12   -0.000829   -0.000671    0.001128
siesta:     13    0.000751   -0.003541    0.000603
siesta:     14   -0.000309   -0.003053   -0.000242
siesta:     15    0.000716   -0.004557    0.000021
siesta: ----------------------------------------
siesta:    Tot    0.064990   -0.009629   -0.000410

siesta: Stress tensor (static) (eV/Ang**3):
siesta:     0.000179   -0.000106    0.000006
siesta:    -0.000106    0.000010   -0.000002
siesta:     0.000006   -0.000002   -0.001057

siesta: Cell volume =       1956.298710 Ang**3

siesta: Pressure (static):
siesta:                Solid            Molecule  Units
siesta:           0.00000315         -0.00000032  Ry/Bohr**3
siesta:           0.00028952         -0.00002897  eV/Ang**3
siesta:           0.46386578         -0.04642029  kBar
(Free)E+ p_basis*V_orbitals  =       -4721.861243
(Free)Eharris+ p_basis*V_orbitals  =       -4721.861243
     spin moment: {S} , |S| = {   -0.00000    0.00000    0.00000 }     0.00000

siesta: Electric dipole (a.u.)  =   -0.350344    2.333247   -0.002185
siesta: Electric dipole (Debye) =   -0.890486    5.930522   -0.005554

cite: Please see "Thymine.bib" for an exhaustive BiBTeX file.
cite: Please clearly indicate Siesta version in published work: 5.1-MaX-41-g6ad11e234
cite: This calculation has made use of the following articles
cite: which are encouraged to be cited in a published work.
        Primary SIESTA paper
          DOI: www.doi.org/10.1088/0953-8984/14/11/302
        Spin-orbit coupling (off-site approximation)
          DOI: www.doi.org/10.1088/0953-8984/24/8/086005
        ELPA library
          DOI: www.doi.org/10.1088/0953-8984/26/21/213201

>> End of run:  11-OCT-2024  21:13:59
Job completed