>> Start of run:  22-MAY-2023  10:24:30

reinit: Reading from standard input
reinit: Dumped input in INPUT_TMP.73558
************************** Dump of input data file ****************************
SystemLabel      AT
NumberOfAtoms    30
NumberOfSpecies  4
%block ChemicalSpeciesLabel
    1    1  H
    2    7  N
    3   14  Si
    4    8  O
%endblock ChemicalSpeciesLabel
# Single point calculation
MD.TypeOfRun                CG
MD.Steps                    0
SCF.MustConverge            F # In case it does not. There can be 2 very close atoms
AtomicCoordinatesFormat NotScaledCartesianAng
%block AtomicCoordinatesAndAtomicSpecies
2.582377650    -5.776830440   0.000000000       1
1.654759240    -5.269361980   0.000000000       2
0.063128840    -6.101704590   0.000000000       3
0.119223240    -7.596849500   0.000000000       1
-1.376892050   -5.182603740   0.000000000       2
-0.824371900   -3.460866440   0.000000000       3
-1.170571480   -1.270002100   0.000000000       3
-2.706933680   -0.417515780   0.000000000       2
-2.754569660   0.634858620    0.000000000       1
-3.637675640   -0.909967860   0.000000000       1
0.218091790    -0.234193970   0.000000000       2
1.872004100    -0.697162300   0.000000000       3
2.828001130    0.461464770    0.000000000       1
2.648150080    -2.255024470   0.000000000       2
1.391921380    -3.454727220   0.000000000       3
1.850053070    7.644603790    0.000000000       2
0.522681550    8.854808090    0.000000000       3
1.162682820    10.216126330   0.000000000       1
-1.563064390   8.184276740    0.000000000       3
-3.592626990   9.314392930    0.000000000       3
-3.438391220   10.474623140   0.940305280       1
-4.578561710   8.292472310    0.512613700       1
-4.008841950   9.790618780    -1.366678340      1
-1.496568970   5.910300120    0.000000000       3
-2.535617700   4.717240620    0.000000000       4
0.160422610    5.276324930    0.000000000       2
0.142405240    4.213880100    0.000000000       1
1.784025680    5.873395140    0.000000000       3
2.979041850    4.858969940    0.000000000       4
2.850090440    7.990110890    0.000000000       1
%endblock AtomicCoordinatesAndAtomicSpecies
%include ../../../Defaults.fdf
************************** End of input data file *****************************

reinit: -----------------------------------------------------------------------
reinit: System Name:
reinit: -----------------------------------------------------------------------
reinit: System Label: AT
reinit: -----------------------------------------------------------------------

initatom: Reading input for the pseudopotentials and atomic orbitals ----------
Species number:   1 Atomic number:    1 Label: H
Species number:   2 Atomic number:    7 Label: N
Species number:   3 Atomic number:   14 Label: Si
Species number:   4 Atomic number:    8 Label: O

Ground state valence configuration:   1s01
Reading pseudopotential information in formatted form from H.psf

Pseudopotential generated from a relativistic atomic calculation

Valence configuration for pseudopotential generation:
1s( 1.00) rc: 0.01
2p( 0.00) rc: 0.60
3d( 0.00) rc: 1.99
4f( 0.00) rc: 2.49
Ground state valence configuration:   2s02  2p03
Reading pseudopotential information in formatted form from N.psf

[...]

Valence configuration for pseudopotential generation:
3s( 2.00) rc: 1.67
3p( 2.00) rc: 2.04
3d( 0.00) rc: 2.89
4f( 0.00) rc: 2.49
Ground state valence configuration:   2s02  2p04
Reading pseudopotential information in formatted form from O.psf

Pseudopotential generated from a relativistic atomic calculation

Valence configuration for pseudopotential generation:
2s( 2.00) rc: 0.45
2p( 4.00) rc: 0.92
3d( 0.00) rc: 2.24
4f( 0.00) rc: 0.25
For H, standard SIESTA heuristics set lmxkb to 2
 (one more than the basis l, including polarization orbitals).
Use PS.lmax or PS.KBprojectors blocks to override.
For N, standard SIESTA heuristics set lmxkb to 3
 (one more than the basis l, including polarization orbitals).
Use PS.lmax or PS.KBprojectors blocks to override.
For Si, standard SIESTA heuristics set lmxkb to 3
 (one more than the basis l, including polarization orbitals).
Use PS.lmax or PS.KBprojectors blocks to override.
For O, standard SIESTA heuristics set lmxkb to 3
 (one more than the basis l, including polarization orbitals).
Use PS.lmax or PS.KBprojectors blocks to override.

<basis_specs>
H                    Z=   1    Mass=  1.0100        Charge= 0.17977+309
Lmxo=0 Lmxkb= 2    BasisType=split      Semic=F
L=0  Nsemic=0  Cnfigmx=1
          i=1  nzeta=2  polorb=1  (1s)
            splnorm:   0.62000
               vcte:    0.0000
               rinn:    0.0000
               qcoe:    0.0000
               qyuk:    0.0000
               qwid:   0.10000E-01
                rcs:    0.0000      0.0000
            lambdas:    1.0000      1.0000
L=0  Nkbl=1  erefs: 0.17977+309
L=1  Nkbl=1  erefs: 0.17977+309
L=2  Nkbl=1  erefs: 0.17977+309
</basis_specs>

atom: Called for H                     (Z =   1)

read_vps: Pseudopotential generation method:
read_vps: ATM4.2.7  Troullier-Martins
Valence charge for ps generation:    1.00000

xc_check: Exchange-correlation functional:
xc_check: GGA Perdew, Burke & Ernzerhof 1996
V l=0 = -2*Zval/r beyond r=  0.0098
V l=1 = -2*Zval/r beyond r=  0.5817
V l=2 = -2*Zval/r beyond r=  1.9372
All V_l potentials equal beyond r=  1.9372
This should be close to max(r_c) in ps generation
All pots = -2*Zval/r beyond r=  1.9372

VLOCAL1: 99.0% of the norm of Vloc inside     11.567 Ry
VLOCAL1: 99.9% of the norm of Vloc inside     26.362 Ry
atom: Maximum radius for 4*pi*r*r*local-pseudopot. charge    2.25106
atom: Maximum radius for r*vlocal+2*Zval:    1.91306
GHOST: No ghost state for L =  0
GHOST: No ghost state for L =  1
GHOST: No ghost state for L =  2

KBgen: Kleinman-Bylander projectors:
   l= 0   rc=  2.036604   el= -0.477180   Ekb= -6.081590   kbcos= -0.277285
   l= 1   rc=  2.195416   el=  0.001076   Ekb= -0.926943   kbcos= -0.034643
   l= 2   rc=  2.251056   el=  0.002010   Ekb= -0.130941   kbcos= -0.009788

KBgen: Total number of Kleinman-Bylander projectors:    9
atom: -------------------------------------------------------------------------

atom: SANKEY-TYPE ORBITALS:
atom: Selected multiple-zeta basis: split

SPLIT: Orbitals with angular momentum L= 0

SPLIT: Basis orbitals for state 1s

SPLIT: PAO cut-off radius determined from an
SPLIT: energy shift=  0.002000 Ry

   izeta = 1
                 lambda =    1.000000
                     rc =    6.518340
                 energy =   -0.475305
                kinetic =    0.912139
    potential(screened) =   -1.387444
       potential(ionic) =   -1.907295

   izeta = 2
                 rmatch =    2.141150
              splitnorm =    0.620000
                 energy =    0.566467
                kinetic =    3.772856
    potential(screened) =   -3.206389
       potential(ionic) =   -3.759093

POLgen: Perturbative polarization orbital with L=  1

POLgen: Polarization orbital for state 1s

   izeta = 1
                     rc =    6.518340
                 energy =    0.533861
                kinetic =    1.121086
    potential(screened) =   -0.587225
       potential(ionic) =   -1.053027
atom: Total number of Sankey-type orbitals:  5

atm_pop: Valence configuration (for local Pseudopot. screening):
 1s( 1.00)
Vna: chval, zval:    1.00000   1.00000

Vna:  Cut-off radius for the neutral-atom potential:   6.518340

atom: _________________________________________________________________________

<basis_specs>
N                    Z=   7    Mass=  14.010        Charge= 0.17977+309
Lmxo=1 Lmxkb= 3    BasisType=split      Semic=F
L=0  Nsemic=0  Cnfigmx=2
          i=1  nzeta=2  polorb=0  (2s)
            splnorm:   0.28000
               vcte:    0.0000
               rinn:    0.0000
               qcoe:    0.0000
               qyuk:    0.0000
               qwid:   0.10000E-01
                rcs:    0.0000      0.0000
            lambdas:    1.0000      1.0000
L=1  Nsemic=0  Cnfigmx=2
          i=1  nzeta=2  polorb=1  (2p)
            splnorm:   0.28000
               vcte:    0.0000
               rinn:    0.0000
               qcoe:    0.0000
               qyuk:    0.0000
               qwid:   0.10000E-01
                rcs:    0.0000      0.0000
            lambdas:    1.0000      1.0000
L=0  Nkbl=1  erefs: 0.17977+309
L=1  Nkbl=1  erefs: 0.17977+309
L=2  Nkbl=1  erefs: 0.17977+309
L=3  Nkbl=1  erefs: 0.17977+309
</basis_specs>

[...]

KBgen: Kleinman-Bylander projectors:
   l= 0   rc=  3.417763   el= -1.365098   Ekb= -4.433130   kbcos= -0.707855
   l= 1   rc=  3.375302   el= -0.521201   Ekb=-13.264039   kbcos= -0.535594
   l= 2   rc=  3.872880   el=  0.001991   Ekb= -0.641094   kbcos= -0.062456
   l= 3   rc=  3.970931   el=  0.003093   Ekb= -0.474517   kbcos= -0.018236

[...]

SPLIT: Basis orbitals for state 2p

[...]

POLgen: Polarization orbital for state 2p

[...]

atm_pop: Valence configuration (for local Pseudopot. screening):
 2s( 2.00)
 2p( 3.00)
Vna: chval, zval:    5.00000   5.00000

[...]

KBgen: Kleinman-Bylander projectors:
   l= 0   rc=  3.075247   el= -0.794092   Ekb=  5.879390   kbcos=  0.167461
   l= 1   rc=  3.153101   el= -0.300068   Ekb=  2.642817   kbcos=  0.058301
   l= 2   rc=  3.273594   el=  0.001958   Ekb= -1.185135   kbcos= -0.104411
   l= 3   rc=  3.232927   el=  0.003046   Ekb= -0.497174   kbcos= -0.015889

[...]

<basis_specs>
O                    Z=   8    Mass=  16.000        Charge= 0.17977+309
Lmxo=1 Lmxkb= 3    BasisType=split      Semic=F
L=0  Nsemic=0  Cnfigmx=2
          i=1  nzeta=2  polorb=0  (2s)
            splnorm:   0.28000
               vcte:    0.0000
               rinn:    0.0000
               qcoe:    0.0000
               qyuk:    0.0000
               qwid:   0.10000E-01
                rcs:    0.0000      0.0000
            lambdas:    1.0000      1.0000
L=1  Nsemic=0  Cnfigmx=2
          i=1  nzeta=2  polorb=1  (2p)
            splnorm:   0.28000
               vcte:    0.0000
               rinn:    0.0000
               qcoe:    0.0000
               qyuk:    0.0000
               qwid:   0.10000E-01
                rcs:    0.0000      0.0000
            lambdas:    1.0000      1.0000
L=0  Nkbl=1  erefs: 0.17977+309
L=1  Nkbl=1  erefs: 0.17977+309
L=2  Nkbl=1  erefs: 0.17977+309
L=3  Nkbl=1  erefs: 0.17977+309
</basis_specs>

atom: Called for O                     (Z =   8)

read_vps: Pseudopotential generation method:
read_vps: ATM4.2.7  Troullier-Martins
Valence charge for ps generation:    6.00000

xc_check: Exchange-correlation functional:
xc_check: GGA Perdew, Burke & Ernzerhof 1996
V l=0 = -2*Zval/r beyond r=  1.1000
V l=1 = -2*Zval/r beyond r=  1.1000
V l=2 = -2*Zval/r beyond r=  2.2154
V l=3 = -2*Zval/r beyond r=  1.1000
All V_l potentials equal beyond r=  2.2154
This should be close to max(r_c) in ps generation
All pots = -2*Zval/r beyond r=  2.2154

VLOCAL1: 99.0% of the norm of Vloc inside      8.845 Ry
VLOCAL1: 99.9% of the norm of Vloc inside     20.157 Ry
atom: Maximum radius for 4*pi*r*r*local-pseudopot. charge    2.67231
atom: Maximum radius for r*vlocal+2*Zval:    2.32897
GHOST: No ghost state for L =  0
[...]
   scf:   28    -3998.814172    -3998.814172    -3998.814205  0.000001 -4.000273  0.000005
     spin moment: S , {S} =    0.00000   0.00000  -0.00000  -0.00000
   scf:   29    -3998.814172    -3998.814172    -3998.814205  0.000001 -4.000274  0.000005
     spin moment: S , {S} =    0.00000   0.00000  -0.00000   0.00000
   scf:   30    -3998.814172    -3998.814172    -3998.814205  0.000000 -4.000274  0.000003
     spin moment: S , {S} =    0.00000   0.00000  -0.00000   0.00000
   scf:   31    -3998.814172    -3998.814172    -3998.814205  0.000000 -4.000274  0.000002
     spin moment: S , {S} =    0.00000   0.00000  -0.00000   0.00000
   scf:   32    -3998.814172    -3998.814172    -3998.814205  0.000000 -4.000274  0.000001
     spin moment: S , {S} =    0.00000   0.00000  -0.00000   0.00000
   scf:   33    -3998.814172    -3998.814172    -3998.814205  0.000000 -4.000274  0.000001
     spin moment: S , {S} =    0.00000   0.00000  -0.00000   0.00000

SCF Convergence by DM+H criterion
max |DM_out - DM_in|         :     0.0000001754
max |H_out - H_in|      (eV) :     0.0000008746
SCF cycle converged after 33 iterations

Using DM_out to compute the final energy and forces
No. of atoms with KB's overlaping orbs in proc 0. Max # of overlaps:      24     149

siesta: E_KS(eV) =            -3998.8142

siesta: E_KS - E_eggbox =     -3998.8142
     spin moment: S , {S} =    0.00000   0.00000  -0.00000   0.00000

siesta: Atomic forces (eV/Ang):
     1   -0.037512    0.057572    0.000002
     2   -0.005801   -0.040139   -0.000002
     3   -0.002548    0.042831    0.000004
     4   -0.020469   -0.013717    0.000001
     5    0.022220   -0.042161   -0.000003
     6    0.028536    0.004808   -0.000000
     7   -0.095255    0.116550    0.000009
     8    0.065696   -0.057622   -0.000033
     9    0.016862   -0.016743    0.000051
    10    0.092625    0.031437    0.000007
    11   -0.032289   -0.018634   -0.000011
    12    0.059946    0.067588    0.000000
    13   -0.083761   -0.112234   -0.000000
    14   -0.013990   -0.063871    0.000001
    15   -0.000152    0.066166   -0.000000
    16    0.003181    0.165211    0.008257
    17   -0.004662   -0.045518   -0.039780
    18   -0.209668    0.053663    0.008249
    19    0.001903    0.028979   -0.041176
    20    0.043663   -0.050969    0.027576
    21   -0.068194    0.014272   -0.071560
    22   -0.029571    0.099667    0.026914
    23    0.025223    0.024239   -0.052876
    24    0.061439   -0.113693   -0.026646
    25   -3.402627    0.975917    0.003060
    26   -0.052812    0.072791    0.006543
    27    0.051815   -0.119870    0.002795
    28   -0.011864   -0.127161   -0.000872
    29    4.758277    0.985368   -0.001094
    30   -0.022242    0.135479    0.008275
   Tot    1.137968    2.120204   -0.142310
   Max    4.758277
   Res    0.636149    sqrt( Sum f_i^2 / 3N )
   Max    4.758277    constrained

Stress tensor Voigt[x,y,z,yz,xz,xy] (kbar):       -1.74       -0.38       -0.22       -0.04        0.05        0.28
(Free)E + p*V (eV/cell)    -3996.6419
Target enthalpy (eV/cell)    -3998.8142

mulliken: Atomic and Orbital Populations:

Species: H

Atom      Orb        Charge      Spin       Svec
    1  3 2Ppy       0.02794   0.00000     -0.000   0.000   0.000
    1  4 2Ppz       0.03998   0.00000     -0.000  -0.000  -0.000
    1  5 2Ppx       0.02508   0.00000     -0.000   0.000   0.000
    1     Total     0.78976   0.00000     -0.000  -0.000   0.000

    4  3 2Ppy       0.03903   0.00000      0.000  -0.000   0.000
    4  4 2Ppz       0.01991   0.00000     -0.000  -0.000   0.000
    4  5 2Ppx       0.01356   0.00000     -0.000  -0.000  -0.000
    4     Total     1.19163   0.00000     -0.000  -0.000  -0.000

[...]

   30  3 2Ppy       0.02655   0.00000      0.000  -0.000  -0.000
   30  4 2Ppz       0.03451   0.00000      0.000  -0.000   0.000
   30  5 2Ppx       0.02314   0.00000      0.000  -0.000   0.000
   30     Total     0.75681   0.00000     -0.000  -0.000   0.000

Total              10.95194   0.00000      0.000  -0.000  -0.000

[...]

Atom      Orb        Charge      Spin       Svec
    2  9 3Pdxy      0.00674   0.00000      0.000   0.000   0.000
    2 10 3Pdyz      0.00607   0.00000     -0.000   0.000   0.000
    2 11 3Pdz2      0.00151   0.00000      0.000  -0.000   0.000
    2 12 3Pdxz      0.00304   0.00000      0.000  -0.000   0.000
    2 13 3Pdx2-y2   0.00297   0.00000     -0.000  -0.000  -0.000
    2     Total     5.52929   0.00000      0.000  -0.000  -0.000

    5  9 3Pdxy      0.00854   0.00000      0.000  -0.000  -0.000
    5 10 3Pdyz      0.00701   0.00000     -0.000  -0.000   0.000
    5 11 3Pdz2      0.00189   0.00000     -0.000   0.000   0.000
    5 12 3Pdxz      0.01129   0.00000      0.000   0.000   0.000
    5 13 3Pdx2-y2   0.00920   0.00000     -0.000   0.000   0.000
    5     Total     5.37775   0.00000     -0.000  -0.000  -0.000

[...]

   15  3 3py       -0.03270   0.00000     -0.000  -0.000   0.000
   15  9 3Pdxy      0.14149   0.00000     -0.000   0.000   0.000
   15 10 3Pdyz      0.12585   0.00000     -0.000  -0.000  -0.000
   15 11 3Pdz2      0.01385   0.00000      0.000   0.000   0.000
   15 12 3Pdxz      0.12462   0.00000     -0.000  -0.000   0.000
   15 13 3Pdx2-y2   0.30191   0.00000      0.000  -0.000  -0.000
   15     Total     3.61733   0.00000     -0.000  -0.000   0.000

[...]

Species: O

Atom      Orb        Charge      Spin       Svec
   25  9 3Pdxy      0.00721   0.00000     -0.000  -0.000  -0.000
   25 10 3Pdyz      0.00618   0.00000      0.000  -0.000  -0.000
   25 11 3Pdz2      0.00135   0.00000     -0.000   0.000  -0.000
   25 12 3Pdxz      0.00440   0.00000     -0.000  -0.000  -0.000
   25 13 3Pdx2-y2   0.00737   0.00000     -0.000   0.000  -0.000
   25     Total     6.46176   0.00000     -0.000   0.000   0.000

   29  9 3Pdxy      0.00817   0.00000     -0.000  -0.000  -0.000
   29 10 3Pdyz      0.00487   0.00000      0.000  -0.000  -0.000
   29 11 3Pdz2      0.00139   0.00000      0.000   0.000   0.000
   29 12 3Pdxz      0.00628   0.00000     -0.000   0.000  -0.000
   29 13 3Pdx2-y2   0.00786   0.00000      0.000   0.000   0.000
   29     Total     6.45927   0.00000      0.000   0.000   0.000

Total              98.00000   0.00000      0.000  -0.000   0.000

siesta: Eigenvalues (eV):
ik =     1
  -22.9328  -22.9328  -22.5453  -22.5453  -21.9795  -21.9795  -21.2550  -21.2550  -21.0606  -21.0606
  -20.7764  -20.7764  -19.4672  -19.4672  -19.2805  -19.2805  -18.6755  -18.6755  -15.3145  -15.3145
  -14.3771  -14.3771  -13.6819  -13.6819  -13.6620  -13.6620  -13.3023  -13.3023  -12.9516  -12.9516
  -12.5376  -12.5376  -12.0379  -12.0379  -12.0302  -12.0302  -11.5696  -11.5696  -11.4959  -11.4959
  -10.9639  -10.9639  -10.7628  -10.7628  -10.2452  -10.2452   -9.8363   -9.8363   -9.5763   -9.5763
   -9.3365   -9.3365   -9.1821   -9.1821   -9.1689   -9.1689   -8.8759   -8.8759   -8.7262   -8.7262
   -8.4007   -8.4007   -8.2201   -8.2201   -8.1831   -8.1831   -8.1296   -8.1296   -7.9750   -7.9750
   -7.9276   -7.9276   -7.3806   -7.3806   -7.3788   -7.3788   -7.3185   -7.3185   -6.8285   -6.8285
   -6.7916   -6.7916   -6.6486   -6.6485   -6.4256   -6.4256   -6.3740   -6.3740   -6.1696   -6.1696
   -5.9478   -5.9478   -5.7891   -5.7891   -5.5988   -5.5988   -4.2718   -4.2718   -3.7287   -3.7287
   -2.8467   -2.8467   -2.4724   -2.4724   -2.2621   -2.2621   -2.1833   -2.1833   -2.0923   -2.0923
   -1.9641   -1.9641   -1.7012   -1.7012   -1.6228   -1.6228   -1.5925   -1.5925   -1.3987   -1.3987
   -1.0932   -1.0932   -0.6650   -0.6650   -0.3963   -0.3963   -0.2804   -0.2804   -0.2131   -0.2131
   -0.2067   -0.2067   -0.0715   -0.0715    0.2610    0.2610    0.4046    0.4046    0.5306    0.5306
    0.5745    0.5745    0.7249    0.7249    1.0607    1.0607    1.2361    1.2361    1.2798    1.2798
    1.3497    1.3497    1.5411    1.5411    1.8709    1.8709    2.0232    2.0232    2.1839    2.1839
    2.5038    2.5038    2.6209    2.6209    2.6774    2.6774    2.8328    2.8328    2.9739    2.9739
    2.9890    2.9890    3.0833    3.0833    3.1185    3.1185    3.2330    3.2330    3.5534    3.5534
    3.7475    3.7475    3.9130    3.9130    4.1658    4.1658    4.2854    4.2854    4.3881    4.3881
    4.4633    4.4633    4.6329    4.6329    4.6725    4.6725    4.8157    4.8157    4.9954    4.9954
    5.0860    5.0860    5.2551    5.2551    5.4407    5.4407    5.5842    5.5842    5.8458    5.8458
    5.8900    5.8900    6.0166    6.0166    6.0937    6.0937    6.3133    6.3133    6.4083    6.4083
    6.5249    6.5249    6.6669    6.6669    6.7914    6.7914    6.9790    6.9790    7.1283    7.1283
    7.2005    7.2005    7.5331    7.5331    7.7121    7.7121    7.7544    7.7544    7.8795    7.8795
    7.9805    7.9805    8.2790    8.2790    8.3175    8.3175    8.3734    8.3734    8.5013    8.5013
    8.5448    8.5448    8.9387    8.9387    8.9511    8.9511    9.3510    9.3510    9.6346    9.6346
    9.6673    9.6673    9.8681    9.8681    9.8908    9.8908    9.9131    9.9131    9.9811    9.9811
   10.0010   10.0010   10.4375   10.4375   10.6512   10.6512   10.9418   10.9418   11.1048   11.1048
   11.3572   11.3572   11.3732   11.3732   11.5200   11.5200   11.7467   11.7467   11.8321   11.8321
   11.9191   11.9191   12.3033   12.3033   12.4562   12.4562   12.6693   12.6693   12.7610   12.7610
   12.8959   12.8959   13.1002   13.1002   13.2754   13.2754   13.3081   13.3081   13.4345   13.4345
   13.6614   13.6614   13.9406   13.9406   14.3540   14.3540   14.5578   14.5578   14.7800   14.7800
   14.8086   14.8086   15.1552   15.1552   15.5542   15.5542   16.0777   16.0777   16.3018   16.3018
   16.4140   16.4140   16.8353   16.8353   16.8864   16.8864   17.1957   17.1957   17.3622   17.3622
   17.9307   17.9307   18.0408   18.0408   18.3587   18.3587   18.6047   18.6047   18.7470   18.7470
   18.7978   18.7978   19.7712   19.7712   19.9603   19.9603   20.3414   20.3414   20.4641   20.4641
   20.9024   20.9024   21.0850   21.0850   21.3012   21.3012   21.6313   21.6313   22.2479   22.2479
   22.4764   22.4764   22.8282   22.8282   22.9830   22.9830   23.0611   23.0611   23.0712   23.0712
   24.2766   24.2766   24.6672   24.6672   25.1178   25.1178   25.6219   25.6219   25.8820   25.8820
   26.1703   26.1703   26.6188   26.6188   27.0300   27.0300   27.9491   27.9491   28.1535   28.1535
   28.4975   28.4975   28.5617   28.5617   29.8183   29.8183   30.1176   30.1176   30.5668   30.5668
   30.7986   30.7986   30.8513   30.8513   31.3244   31.3244   31.4811   31.4811   31.6489   31.6489
   31.8374   31.8374   32.3960   32.3960   32.5783   32.5783   33.4569   33.4569   33.7311   33.7311
   34.0604   34.0604   34.2599   34.2599   34.4587   34.4587   35.0034   35.0034   35.4688   35.4688
   35.9216   35.9216   36.2100   36.2100   36.3885   36.3885   37.2025   37.2025   37.4558   37.4558
   37.7363   37.7363   37.8770   37.8770   38.5228   38.5228   38.8564   38.8564   38.9531   38.9531
   39.8592   39.8592   40.5473   40.5473   40.8113   40.8113   41.4427   41.4427   41.6067   41.6067
   41.8315   41.8315   41.9148   41.9148   42.2423   42.2423   42.9052   42.9052   43.3236   43.3236
   43.9065   43.9065   44.5617   44.5617   44.7669   44.7669   44.9681   44.9681   45.2738   45.2738
   45.3103   45.3103   45.8100   45.8100   46.4891   46.4891   46.5929   46.5929   47.1369   47.1369
   47.7654   47.7654   48.0192   48.0192   48.8350   48.8350   48.8426   48.8426   49.2186   49.2186
   49.9197   49.9197   50.2074   50.2074   50.4303   50.4303   50.6390   50.6390   50.9397   50.9397
   52.0118   52.0118   52.2575   52.2575   54.0186   54.0186   54.2046   54.2046   54.8614   54.8614
   55.3050   55.3050   55.4087   55.4087   56.2916   56.2916   56.4418   56.4418   56.8584   56.8584
   56.9207   56.9207   57.7697   57.7697   58.7908   58.7908   59.0133   59.0133   59.7159   59.7159
   60.4296   60.4296   61.3483   61.3483   61.6596   61.6596   62.2709   62.2709   62.9115   62.9115
   65.6565   65.6565   66.3487   66.3487   67.1303   67.1303   67.3983   67.3983   68.1656   68.1656
   68.9723   68.9723   71.4249   71.4249   73.6800   73.6800   79.1636   79.1636   91.6085   91.6085
   92.4768   92.4768   92.9756   92.9756   95.6048   95.6048   97.7862   97.7862  100.4534  100.4534
  100.7974  100.7974  103.0388  103.0388  113.5001  113.5001  120.4286  120.4286  123.0949  123.0949
  135.7103  135.7103  140.5102  140.5102
siesta: Fermi energy =      -4.000274 eV

siesta: Program's energy decomposition (eV):
siesta: Ebs     =     -1118.734306
siesta: Eions   =      3553.971015
siesta: Ena     =       377.805112
siesta: Ekin    =      2751.412634
siesta: Enl     =     -2532.239309
siesta: Eso     =        -0.004696
siesta: Edftu   =         0.000000
siesta: DEna    =        37.145987
siesta: DUscf   =        14.118794
siesta: DUext   =         0.000000
siesta: Exc     =     -1093.081679
siesta: eta*DQ  =         0.000000
siesta: Emadel  =         0.000000
siesta: Emeta   =         0.000000
siesta: Emolmec =         0.000000
siesta: Ekinion =         0.000000
siesta: Eharris =     -3998.814172
siesta: Etot    =     -3998.814172
siesta: FreeEng =     -3998.814205

siesta: Final energy (eV):
siesta:  Band Struct. =   -1118.734306
siesta:       Kinetic =    2751.412634
siesta:       Hartree =    7171.360885
siesta:       Edftu   =       0.000000
siesta:       Eso     =      -0.004696
siesta:    Ext. field =       0.000000
siesta:   Exch.-corr. =   -1093.081679
siesta:  Ion-electron =  -16794.230232
siesta:       Ion-ion =    3965.728917
siesta:       Ekinion =       0.000000
siesta:         Total =   -3998.814172
siesta:         Fermi =      -4.000274

siesta: Atomic forces (eV/Ang):
siesta:      1   -0.037512    0.057572    0.000002
siesta:      2   -0.005801   -0.040139   -0.000002
siesta:      3   -0.002548    0.042831    0.000004
siesta:      4   -0.020469   -0.013717    0.000001
siesta:      5    0.022220   -0.042161   -0.000003
siesta:      6    0.028536    0.004808   -0.000000
siesta:      7   -0.095255    0.116550    0.000009
siesta:      8    0.065696   -0.057622   -0.000033
siesta:      9    0.016862   -0.016743    0.000051
siesta:     10    0.092625    0.031437    0.000007
siesta:     11   -0.032289   -0.018634   -0.000011
siesta:     12    0.059946    0.067588    0.000000
siesta:     13   -0.083761   -0.112234   -0.000000
siesta:     14   -0.013990   -0.063871    0.000001
siesta:     15   -0.000152    0.066166   -0.000000
siesta:     16    0.003181    0.165211    0.008257
siesta:     17   -0.004662   -0.045518   -0.039780
siesta:     18   -0.209668    0.053663    0.008249
siesta:     19    0.001903    0.028979   -0.041176
siesta:     20    0.043663   -0.050969    0.027576
siesta:     21   -0.068194    0.014272   -0.071560
siesta:     22   -0.029571    0.099667    0.026914
siesta:     23    0.025223    0.024239   -0.052876
siesta:     24    0.061439   -0.113693   -0.026646
siesta:     25   -3.402627    0.975917    0.003060
siesta:     26   -0.052812    0.072791    0.006543
siesta:     27    0.051815   -0.119870    0.002795
siesta:     28   -0.011864   -0.127161   -0.000872
siesta:     29    4.758277    0.985368   -0.001094
siesta:     30   -0.022242    0.135479    0.008275
siesta: ----------------------------------------
siesta:    Tot    1.137968    2.120204   -0.142310

siesta: Stress tensor (static) (eV/Ang**3):
siesta:    -0.001087    0.000175    0.000030
siesta:     0.000175   -0.000238   -0.000026
siesta:     0.000030   -0.000026   -0.000137

siesta: Cell volume =       4455.928621 Ang**3

siesta: Pressure (static):
siesta:                Solid            Molecule  Units
siesta:           0.00000531         -0.00001751  Ry/Bohr**3
siesta:           0.00048751         -0.00160809  eV/Ang**3
siesta:           0.78107788         -2.57647672  kBar
(Free)E+ p_basis*V_orbitals  =       -3977.686120
(Free)Eharris+ p_basis*V_orbitals  =       -3977.686120
     spin moment: S , {S} =    0.00000   0.00000  -0.00000   0.00000

siesta: Electric dipole (a.u.)  =   -0.307432    2.576201   -0.013027
siesta: Electric dipole (Debye) =   -0.781415    6.548054   -0.033111

cite: Please see "AT.bib" for an exhaustive BiBTeX file.
cite: Please clearly indicate Siesta version in published work: v4.1.5-1-g384057250
cite: This calculation has made use of the following articles
cite: which are encouraged to be cited in a published work.
        Primary SIESTA paper
          DOI: www.doi.org/10.1088/0953-8984/14/11/302
        Spin-orbit coupling (on-site approximation)
          DOI: www.doi.org/10.1088/0953-8984/19/19/489001

WARNING: alloc-realloc-dealloc name mismatch
         Name: atomlist isa
         Node:     0
         Subsequent mismatches will not be reported
>> End of run:  22-MAY-2023  10:26:35
Job completed