>> Start of run:  17-OCT-2023  20:14:18

reinit: Reading from standard input
reinit: Dumped input in INPUT_TMP.72237
************************** Dump of input data file ****************************
SystemLabel      desoxy1
NumberOfAtoms    37
NumberOfSpecies  4
%block ChemicalSpeciesLabel
    1    8  O
    2   14  Si
    3    1  H
    4   15  P
%endblock ChemicalSpeciesLabel
# This overrides Defaults.fdf configuration
MD.TypeOfRun                Verlet # CG, Verlet
MD.Steps                    600
MD.Quench                   True
MD.InitialTemperature       1 K
SCF.H.Tolerance             0.00006 eV
SCF.DM.Tolerance            0.00008
MaxSCFIterations            300
AtomicCoordinatesFormat NotScaledCartesianAng
%block AtomicCoordinatesAndAtomicSpecies
  -10.27083356   15.58704552   -0.33967257   1       1  O
   -9.23210456   15.04409819    0.99116983   2       2  Si
  -10.00154760   14.08445467    1.87339822   3       3  H
   -8.76208085   16.24985946    1.78737425   3       4  H
   -7.18137218   13.96839200    0.33657783   2       5  Si
   -6.37225304   14.08399550    1.61698453   3       6  H
   -7.16980516   12.25617062   -0.08608159   1       7  O
   -7.59607874   11.75307018   -1.71684984   2       8  Si
   -6.54877505   10.75009550   -2.12914630   3       9  H
   -8.94040632   11.08283570   -1.61838676   3      10  H
   -6.43082896   15.14588195   -1.58240078   2      11  Si
   -6.90385052   16.58456280   -1.61728074   3      12  H
   -7.61828591   13.71258470   -3.06462361   2      13  Si
   -9.02667796   14.25067454   -3.23509309   3      14  H
   -6.99110883   13.50097323   -4.42715085   3      15  H
   -4.69160560   15.08420652   -1.70535694   1      16  O
   -4.34093598   15.25307184   -2.62259066   3      17  H
  -11.77339371   16.41532663    1.62339114   1      18  O
  -11.48475948   16.82423046   -0.00405510   4      19  P
  -10.62608094   18.16145529   -0.08663356   1      20  O
  -12.99736660   16.66764183   -0.59496348   1      21  O
  -17.08150844   14.08640828    2.72496948   1      22  O
  -16.46892085   14.95205205    4.11102500   2      23  Si
  -16.81580487   14.16832965    5.36395184   3      24  H
  -17.08078407   16.33519588    4.17185660   3      25  H
  -14.06961043   15.04319178    4.22742892   2      26  Si
  -13.71770031   15.99999075    5.36245555   3      27  H
  -13.62863482   13.42218702    4.76335471   1      28  O
  -13.05892780   12.27989427    3.55080013   2      29  Si
  -11.59176168   12.08317307    3.83033084   3      30  H
  -13.80650207   11.00002071    3.82958311   3      31  H
  -13.34366067   15.61917099    1.89172237   2      32  Si
  -14.51407075   16.50094352    1.53247899   3      33  H
  -13.40566096   13.26977497    1.39628611   2      34  Si
  -14.77850722   12.91829996    0.85146204   3      35  H
  -12.30188272   12.91715314    0.42529291   3      36  H
  -17.95852618   14.41697326    2.38649524   3      37  H
%endblock AtomicCoordinatesAndAtomicSpecies
# Unit Cell
LatticeConstant 1.0 Ang
%block LatticeVectors
    22.656367    0.000000    0.000000
    0.000000   15.001154    0.000000
    0.000000    0.000000   18.389973
%endblock LatticeVectors
%include ../../Defaults.fdf
************************** End of input data file *****************************

reinit: -----------------------------------------------------------------------
reinit: System Name:
reinit: -----------------------------------------------------------------------
reinit: System Label: desoxy1
reinit: -----------------------------------------------------------------------

initatom: Reading input for the pseudopotentials and atomic orbitals ----------
Species number:   1 Atomic number:    8 Label: O
Species number:   2 Atomic number:   14 Label: Si
Species number:   3 Atomic number:    1 Label: H
Species number:   4 Atomic number:   15 Label: P

Ground state valence configuration:   2s02  2p04
Reading pseudopotential information in formatted form from O.psf

Pseudopotential generated from a relativistic atomic calculation

Valence configuration for pseudopotential generation:
2s( 2.00) rc: 0.45
2p( 4.00) rc: 0.92
3d( 0.00) rc: 2.24
4f( 0.00) rc: 0.25
Ground state valence configuration:   3s02  3p02
Reading pseudopotential information in formatted form from Si.psf

[...]

Valence configuration for pseudopotential generation:
3s( 2.00) rc: 1.67
3p( 2.00) rc: 2.04
3d( 0.00) rc: 2.89
4f( 0.00) rc: 2.49
Ground state valence configuration:   1s01
Reading pseudopotential information in formatted form from H.psf

[...]

Valence configuration for pseudopotential generation:
1s( 1.00) rc: 0.01
2p( 0.00) rc: 0.60
3d( 0.00) rc: 1.99
4f( 0.00) rc: 2.49
Ground state valence configuration:   3s02  3p03
Reading pseudopotential information in formatted form from P.psf

Pseudopotential generated from a relativistic atomic calculation

Valence configuration for pseudopotential generation:
3s( 2.00) rc: 1.48
3p( 3.00) rc: 1.78
3d( 0.00) rc: 2.24
4f( 0.00) rc: 0.25
For O, standard SIESTA heuristics set lmxkb to 3
 (one more than the basis l, including polarization orbitals).
Use PS.lmax or PS.KBprojectors blocks to override.
For Si, standard SIESTA heuristics set lmxkb to 3
 (one more than the basis l, including polarization orbitals).
Use PS.lmax or PS.KBprojectors blocks to override.
For H, standard SIESTA heuristics set lmxkb to 2
 (one more than the basis l, including polarization orbitals).
Use PS.lmax or PS.KBprojectors blocks to override.
For P, standard SIESTA heuristics set lmxkb to 3
 (one more than the basis l, including polarization orbitals).
Use PS.lmax or PS.KBprojectors blocks to override.

<basis_specs>
O                    Z=   8    Mass=  16.000        Charge= 0.17977+309
Lmxo=1 Lmxkb= 3    BasisType=split      Semic=F
L=0  Nsemic=0  Cnfigmx=2
          i=1  nzeta=2  polorb=0  (2s)
            splnorm:   0.28000
               vcte:    0.0000
               rinn:    0.0000
               qcoe:    0.0000
               qyuk:    0.0000
               qwid:   0.10000E-01
                rcs:    0.0000      0.0000
            lambdas:    1.0000      1.0000
L=1  Nsemic=0  Cnfigmx=2
          i=1  nzeta=2  polorb=1  (2p)
            splnorm:   0.28000
               vcte:    0.0000
               rinn:    0.0000
               qcoe:    0.0000
               qyuk:    0.0000
               qwid:   0.10000E-01
                rcs:    0.0000      0.0000
            lambdas:    1.0000      1.0000
L=0  Nkbl=1  erefs: 0.17977+309
L=1  Nkbl=1  erefs: 0.17977+309
L=2  Nkbl=1  erefs: 0.17977+309
L=3  Nkbl=1  erefs: 0.17977+309
</basis_specs>

atom: Called for O                     (Z =   8)

read_vps: Pseudopotential generation method:
read_vps: ATM4.2.7  Troullier-Martins
Valence charge for ps generation:    6.00000

xc_check: Exchange-correlation functional:
xc_check: GGA Perdew, Burke & Ernzerhof 1996
V l=0 = -2*Zval/r beyond r=  1.1000
V l=1 = -2*Zval/r beyond r=  1.1000
V l=2 = -2*Zval/r beyond r=  2.2154
V l=3 = -2*Zval/r beyond r=  1.1000
All V_l potentials equal beyond r=  2.2154
This should be close to max(r_c) in ps generation
All pots = -2*Zval/r beyond r=  2.2154

VLOCAL1: 99.0% of the norm of Vloc inside      8.845 Ry
VLOCAL1: 99.9% of the norm of Vloc inside     20.157 Ry
atom: Maximum radius for 4*pi*r*r*local-pseudopot. charge    2.67231
atom: Maximum radius for r*vlocal+2*Zval:    2.32897
GHOST: No ghost state for L =  0
GHOST: No ghost state for L =  1
GHOST: No ghost state for L =  2
GHOST: No ghost state for L =  3

KBgen: Kleinman-Bylander projectors:
   l= 0   rc=  2.243238   el= -1.759686   Ekb=**********   kbcos= -0.171774
   l= 1   rc=  2.328968   el= -0.663873   Ekb=-14.506792   kbcos= -0.519897
   l= 2   rc=  2.573941   el=  0.002031   Ekb= -1.137373   kbcos= -0.019581
   l= 3   rc=  2.606321   el=  0.003153   Ekb= -1.013546   kbcos= -0.003122

KBgen: Total number of Kleinman-Bylander projectors:   16
atom: -------------------------------------------------------------------------

atom: SANKEY-TYPE ORBITALS:
atom: Selected multiple-zeta basis: split

SPLIT: Orbitals with angular momentum L= 0

SPLIT: Basis orbitals for state 2s

SPLIT: PAO cut-off radius determined from an
SPLIT: energy shift=  0.002000 Ry

   izeta = 1
                 lambda =    1.000000
                     rc =    4.243912
                 energy =   -1.758270
                kinetic =    3.286084
    potential(screened) =   -5.044353
       potential(ionic) =  -12.921184

   izeta = 2
                 rmatch =    2.187845
              splitnorm =    0.280000
                 energy =   -0.885018
                kinetic =    8.134434
    potential(screened) =   -9.019452
       potential(ionic) =  -17.710645

[...]

SPLIT: Basis orbitals for state 2p

[...]

POLgen: Perturbative polarization orbital with L=  2

POLgen: Polarization orbital for state 2p

   izeta = 1
                     rc =    5.314825
                 energy =    1.970580
                kinetic =    3.886128
    potential(screened) =   -1.915547
       potential(ionic) =   -7.749584
atom: Total number of Sankey-type orbitals: 13

atm_pop: Valence configuration (for local Pseudopot. screening):
 2s( 2.00)
 2p( 4.00)
Vna: chval, zval:    6.00000   6.00000

Vna:  Cut-off radius for the neutral-atom potential:   5.314825

atom: _________________________________________________________________________

[...]

KBgen: Kleinman-Bylander projectors:
   l= 0   rc=  3.075247   el= -0.794092   Ekb=  5.879390   kbcos=  0.167461
   l= 1   rc=  3.153101   el= -0.300068   Ekb=  2.642817   kbcos=  0.058301
   l= 2   rc=  3.273594   el=  0.001958   Ekb= -1.185135   kbcos= -0.104411
   l= 3   rc=  3.232927   el=  0.003046   Ekb= -0.497174   kbcos= -0.015889

[...]

<basis_specs>
H                    Z=   1    Mass=  1.0100        Charge= 0.17977+309
Lmxo=0 Lmxkb= 2    BasisType=split      Semic=F
L=0  Nsemic=0  Cnfigmx=1
          i=1  nzeta=2  polorb=1  (1s)
            splnorm:   0.62000
               vcte:    0.0000
               rinn:    0.0000
               qcoe:    0.0000
               qyuk:    0.0000
               qwid:   0.10000E-01
                rcs:    0.0000      0.0000
            lambdas:    1.0000      1.0000
L=0  Nkbl=1  erefs: 0.17977+309
L=1  Nkbl=1  erefs: 0.17977+309
L=2  Nkbl=1  erefs: 0.17977+309
</basis_specs>

[...]

POLgen: Polarization orbital for state 1s

[...]

atm_pop: Valence configuration (for local Pseudopot. screening):
 1s( 1.00)
Vna: chval, zval:    1.00000   1.00000

[...]

<basis_specs>
P                    Z=  15    Mass=  30.970        Charge= 0.17977+309
Lmxo=1 Lmxkb= 3    BasisType=split      Semic=F
L=0  Nsemic=0  Cnfigmx=3
          i=1  nzeta=2  polorb=0  (3s)
            splnorm:   0.28000
               vcte:    0.0000
               rinn:    0.0000
               qcoe:    0.0000
               qyuk:    0.0000
               qwid:   0.10000E-01
                rcs:    0.0000      0.0000
            lambdas:    1.0000      1.0000
L=1  Nsemic=0  Cnfigmx=3
          i=1  nzeta=2  polorb=1  (3p)
            splnorm:   0.28000
               vcte:    0.0000
               rinn:    0.0000
               qcoe:    0.0000
               qyuk:    0.0000
               qwid:   0.10000E-01
[...]
          14      45:   66    1:   56   15:   28
          15      43:   66   57:   90   15:   28
          16      91:  128    1:   55   96:  108
          17       1:   44    1:   56    1:   16
          18       1:   44    1:   56   17:   28
          19       1:   47   61:   90   29:   42
          20      67:   85   66:   90    1:   24
          21      84:  128    1:   65    1:   13
          22      67:   90   56:   90   81:   94
          23      67:   90    1:   55   81:   96
          24      91:  128   56:   90   95:  108
          25      43:   66   57:   90    1:   14
          26       1:   42   57:   90   15:   28
          27      48:   66   61:   90   29:   79
          28       1:   47   61:   90   43:  108
          29      86:  128   66:   90   20:   80
          30      67:   85   66:   90   25:   80
          31      91:  128   56:   90   81:   94
          32      48:   66   61:   90   80:  108
Setting up quadratic distribution...
ExtMesh (bp) on 0 =   151 x   127 x   119 =     2282063
PhiOnMesh: Number of (b)points on node 0 =                 9823
PhiOnMesh: nlist on node 0 =               316007

        iscf     Eharris(eV)        E_KS(eV)     FreeEng(eV)     dDmax    Ef(eV) dHmax(eV)
   scf:    1    -5022.434573    -5022.434654    -5022.452448  0.000009 -6.306130  0.000346
     spin moment: S , {S} =    0.95567   0.00252  -0.00399   0.95565
   scf:    2    -5022.434537    -5022.434597    -5022.452446  0.000250 -6.306135  0.008710
     spin moment: S , {S} =    0.95543   0.00250  -0.00394   0.95542
   scf:    3    -5022.434701    -5022.434650    -5022.452448  0.000248 -6.306122  0.000264
     spin moment: S , {S} =    0.95565   0.00251  -0.00397   0.95564
   scf:    4    -5022.434652    -5022.434651    -5022.452448  0.000016 -6.306125  0.000328
     spin moment: S , {S} =    0.95565   0.00251  -0.00397   0.95564
   scf:    5    -5022.434650    -5022.434651    -5022.452448  0.000006 -6.306121  0.000105
     spin moment: S , {S} =    0.95565   0.00250  -0.00395   0.95564
   scf:    6    -5022.434651    -5022.434651    -5022.452448  0.000002 -6.306120  0.000053
     spin moment: S , {S} =    0.95565   0.00250  -0.00393   0.95564

SCF Convergence by DM+H criterion
max |DM_out - DM_in|         :     0.0000015690
max |H_out - H_in|      (eV) :     0.0000528949
SCF cycle converged after 6 iterations

Using DM_out to compute the final energy and forces
No. of atoms with KB's overlaping orbs in proc 0. Max # of overlaps:      30     191

siesta: E_KS(eV) =            -5022.4347
     spin moment: S , {S} =    0.95565   0.00250  -0.00393   0.95564

siesta: Atomic forces (eV/Ang):
     1   -0.000207    0.000070   -0.000322
     2   -0.001114   -0.000339   -0.001300
     3   -0.000009   -0.000004   -0.000001
     4   -0.000027   -0.000093   -0.000080
     5    0.000574   -0.001809    0.001852
     6    0.000087   -0.000023    0.000162
     7    0.000112   -0.000437    0.000013
     8    0.000794    0.000109    0.002065
     9   -0.000033    0.000029    0.000057
    10    0.000052    0.000022    0.000010
    11   -0.000354   -0.000567   -0.000112
    12   -0.000004    0.000002    0.000003
    13    0.000461   -0.000138    0.000168
    14    0.000043   -0.000005    0.000007
    15    0.000016   -0.000016   -0.000012
    16    0.000113   -0.000004   -0.000143
    17    0.000033    0.000017    0.000302
    18    0.000014    0.000108   -0.000098
    19    0.000005    0.000449   -0.000914
    20   -0.000050   -0.000117   -0.000017
    21   -0.000021   -0.000101    0.000071
    22   -0.000266   -0.000297   -0.000915
    23   -0.000815   -0.000889    0.000213
    24   -0.000032   -0.000005    0.000001
    25    0.000000   -0.000036   -0.000002
    26    0.000185   -0.000225    0.000658
    27    0.000009    0.000018    0.000028
    28    0.000049   -0.000536    0.000102
    29   -0.001004   -0.004872    0.002039
    30   -0.000014   -0.000062    0.000021
    31   -0.000245   -0.000431    0.000109
    32   -0.000549    0.002099   -0.001248
    33   -0.000155    0.000086   -0.000041
    34   -0.000461    0.001318    0.000535
    35   -0.000011    0.000003   -0.000014
    36   -0.000039    0.000028    0.000000
    37    0.000014   -0.000062   -0.000003
   Tot   -0.002848   -0.006709    0.003194
   Max    0.004872
   Res    0.000725    sqrt( Sum f_i^2 / 3N )
   Max    0.004872    constrained

Stress tensor Voigt[x,y,z,yz,xz,xy] (kbar):        1.55        0.82       -0.08       -0.63        0.01        0.21
(Free)E + p*V (eV/cell)    -5025.4262
Target enthalpy (eV/cell)    -5022.4524

siesta: Stress tensor (static) (eV/Ang**3):
         0.000969    0.000132    0.000007
         0.000132    0.000511   -0.000393
         0.000007   -0.000393   -0.000053

siesta: Pressure (static):         -0.76230906  kBar

siesta: Stress tensor (total) (eV/Ang**3):
         0.000969    0.000132    0.000007
         0.000132    0.000511   -0.000393
         0.000007   -0.000393   -0.000053

siesta: Pressure (total):         -0.76230847  kBar

outcoor: Relaxed atomic coordinates (Ang):
  -10.27081852   15.58703122   -0.33964973   1       1  O
   -9.23222765   15.04423094    0.99109663   2       2  Si
  -10.00152938   14.08447566    1.87337679   3       3  H
   -8.76208851   16.24984589    1.78736042   3       4  H
   -7.18134979   13.96828818    0.33643603   2       5  Si
   -6.37227617   14.08398624    1.61694438   3       6  H
   -7.16981218   12.25619418   -0.08610801   1       7  O
   -7.59605708   11.75308174   -1.71670213   2       8  Si
   -6.54879526   10.75011851   -2.12913188   3       9  H
   -8.94037063   11.08285665   -1.61837795   3      10  H
   -6.43056529   15.14593446   -1.58242521   2      11  Si
   -6.90383324   16.58453801   -1.61727968   3      12  H
   -7.61829186   13.71260284   -3.06462919   2      13  Si
   -9.02665693   14.25066767   -3.23508987   3      14  H
   -6.99111949   13.50097402   -4.42713073   3      15  H
   -4.69162182   15.08421556   -1.70536129   1      16  O
   -4.34091564   15.25300782   -2.62260857   3      17  H
  -11.77339898   16.41531433    1.62339820   1      18  O
  -11.48473853   16.82431035   -0.00406786   4      19  P
  -10.62607860   18.16146469   -0.08663245   1      20  O
  -12.99736513   16.66764192   -0.59495494   1      21  O
  -17.08150849   14.08642765    2.72498991   1      22  O
  -16.46896109   14.95195431    4.11084583   2      23  Si
  -16.81579758   14.16834380    5.36391840   3      24  H
  -17.08076965   16.33516039    4.17184840   3      25  H
  -14.06954888   15.04299928    4.22753017   2      26  Si
  -13.71770363   15.99996000    5.36243073   3      27  H
  -13.62863523   13.42220198    4.76334111   1      28  O
  -13.05896610   12.28022858    3.55086463   2      29  Si
  -11.59181388   12.08320324    3.83033599   3      30  H
  -13.80647053   11.00009291    3.82957619   3      31  H
  -13.34346116   15.61926278    1.89168213   2      32  Si
  -14.51403528   16.50092211    1.53249320   3      33  H
  -13.40568198   13.26982577    1.39616182   2      34  Si
  -14.77849096   12.91831462    0.85145988   3      35  H
  -12.30189382   12.91715448    0.42530302   3      36  H
  -17.95852468   14.41694833    2.38648303   3      37  H

siesta: Eigenvalues (eV):
ik =     1
  -26.1131  -26.0338  -25.1458  -25.1330  -24.8793  -24.8770  -24.5818  -24.5371  -24.4613  -24.3958
  -24.2664  -24.2528  -23.9330  -23.6909  -23.5566  -23.2293  -15.3200  -15.2517  -14.8905  -14.8532
  -14.7484  -14.7201  -14.5660  -14.5412  -14.3290  -14.3128  -13.9473  -13.9177  -13.5075  -13.4850
  -12.9870  -12.9805  -12.5138  -12.4679  -12.4376  -12.4081  -11.9794  -11.9508  -11.8516  -11.8227
  -11.5618  -11.5443  -11.3118  -11.3046  -11.1187  -10.9845  -10.6734  -10.5707  -10.2921  -10.2462
  -10.1506  -10.1180  -10.0781  -10.0641  -10.0587  -10.0253   -9.9566   -9.9366   -9.7858   -9.7708
   -9.6212   -9.5926   -9.4976   -9.4410   -9.3767   -9.3349   -9.1808   -9.1296   -9.1016   -9.0882
   -9.0422   -9.0071   -8.9988   -8.9388   -8.7922   -8.7882   -8.6264   -8.5763   -8.5018   -8.4946
   -8.4194   -8.3898   -8.2298   -8.1406   -8.0776   -7.9514   -7.9471   -7.8951   -7.8275   -7.8164
   -7.7700   -7.6568   -7.6308   -7.5736   -7.5720   -7.4856   -7.4524   -7.4180   -7.3385   -7.2464
   -7.1817   -7.0939   -7.0232   -6.8689   -6.8360   -6.8297   -6.7467   -6.5867   -6.4537   -6.4046
   -6.3735   -6.2475   -2.8991   -2.8438   -2.5065   -2.4901   -2.3834   -2.3455   -2.1039   -2.0915
   -1.8858   -1.8567   -1.7199   -1.6711   -1.6441   -1.5969   -1.3857   -1.3695   -1.2129   -1.1591
   -1.0380   -1.0099   -0.9863   -0.9396   -0.5626   -0.5526   -0.5409   -0.5104   -0.3389   -0.3048
   -0.2624   -0.2219   -0.1168   -0.0853   -0.0741   -0.0434    0.1371    0.1649    0.2219    0.2611
    0.3629    0.3828    0.3934    0.4217    0.6413    0.6522    0.7119    0.7334    0.7408    0.7650
    0.8644    0.8820    1.0009    1.0241    1.0357    1.0603    1.1302    1.1397    1.3678    1.3867
    1.4162    1.4296    1.4741    1.4975    1.6111    1.6401    1.6551    1.7140    1.8366    1.8666
    1.9566    1.9740    2.1514    2.1899    2.5302    2.5405    2.7901    2.8351    2.8434    2.8827
    2.8931    2.9131    3.1384    3.1855    3.2083    3.2167    3.5608    3.5811    3.6091    3.6212
    3.6508    3.6972    3.7422    3.8011    3.9608    3.9717    4.2367    4.2575    4.4424    4.4559
    4.4953    4.5182    4.7533    4.7676    4.8156    4.8249    4.9622    4.9808    5.0331    5.0450
    5.2245    5.2499    5.3223    5.3284    5.5355    5.5495    5.5654    5.5802    5.7764    5.7852
    5.8789    5.9204    6.0527    6.0883    6.1286    6.1450    6.1988    6.2389    6.4644    6.4740
    6.5024    6.5136    6.6868    6.7182    6.8904    6.9150    7.0215    7.0341    7.1628    7.1914
    7.3429    7.3636    7.5508    7.5713    7.7776    7.7982    7.8506    7.8747    7.9276    7.9375
    8.2032    8.2310    8.6027    8.6188    8.7194    8.7355    8.8305    8.8526    8.9479    8.9670
    9.1744    9.2102    9.3800    9.3976    9.5266    9.5417    9.6809    9.7095    9.7136    9.7221
    9.8231    9.8367    9.9277    9.9360   10.1955   10.2121   10.2821   10.2940   10.5569   10.5810
   10.6877   10.7215   10.7592   10.7749   10.8844   10.9058   11.1732   11.1878   11.2971   11.3192
   11.3710   11.4093   11.4281   11.4517   11.6566   11.6805   11.7075   11.7340   11.8873   11.9150
   12.1371   12.1539   12.3127   12.3439   12.4925   12.5090   12.6613   12.7094   12.7839   12.8008
   12.9900   13.0124   13.1956   13.2054   13.3196   13.3400   13.5913   13.6054   14.0429   14.0586
   14.2860   14.2998   14.3835   14.4117   14.4857   14.4977   14.6183   14.6366   14.7219   14.7364
   14.7455   14.7600   14.9626   14.9787   15.0738   15.1020   15.1935   15.2100   15.3000   15.3112
   15.4887   15.5044   15.6704   15.6821   15.8309   15.8417   15.9499   15.9763   16.1345   16.1688
   16.2426   16.2749   16.5769   16.5908   16.7069   16.7376   16.8634   16.8826   17.1607   17.1677
   17.3492   17.3742   17.5077   17.5248   17.5735   17.5923   17.9017   17.9302   18.2679   18.2827
   18.3176   18.3426   18.4450   18.4665   18.6699   18.6953   18.8763   18.8984   19.1184   19.1329
   19.2413   19.2543   19.2644   19.2738   19.4800   19.4880   19.7358   19.7566   19.8874   19.9060
   20.1452   20.1714   20.2644   20.2881   20.6980   20.7234   20.9130   20.9350   20.9967   21.0133
   21.4159   21.4250   21.4341   21.4544   21.6380   21.6453   21.7139   21.7418   22.0309   22.0408
   22.0689   22.0900   22.2026   22.2186   22.4391   22.4483   22.5434   22.5623   22.6030   22.6158
   22.7860   22.8087   23.1081   23.1186   23.2061   23.2299   23.5131   23.5302   23.7813   23.8134
   24.0002   24.0173   24.0482   24.0699   24.3926   24.4040   24.6688   24.6866   24.7489   24.7715
   24.8919   24.9108   25.1150   25.1245   25.2904   25.2980   25.4340   25.4550   25.5538   25.5852
   25.9210   25.9364   26.2264   26.2341   26.5047   26.5292   26.7350   26.7417   27.1948   27.2147
   27.5247   27.5443   27.5615   27.5791   27.8382   27.8530   28.5355   28.5555   29.1033   29.1588
   29.2968   29.3230   29.7526   29.7779   29.8483   29.8756   30.1754   30.2292   30.5838   30.6307
   31.0580   31.0857   31.5763   31.6308   32.5010   32.7493   32.7648   33.0500   33.2432   33.4795
   33.7517   33.8037   34.0743   34.1078   34.1921   34.2374   35.3747   35.5719   36.0314   36.2892
   36.3290   36.3668   36.4553   36.4648   36.8195   36.9079   37.2575   37.3584   37.7557   37.8458
   38.0028   38.0397   38.4977   38.5409   38.7995   38.8214   38.9001   38.9546   39.6992   39.7417
   39.9116   39.9309   39.9518   40.1498   40.8395   41.0719   42.1588   42.3417   42.7004   42.7633
   45.2094   45.3060   45.7059   45.7804   46.2535   46.3084   46.5432   46.6251   46.8306   46.8892
   47.4010   47.4375   47.6578   47.6747   47.8325   47.8688   47.9902   48.0476   48.2189   48.2466
   48.8455   48.9001   48.9705   49.0221   49.1538   49.2342   49.4312   49.4545   49.5544   49.5917
   49.8710   49.8919   50.3587   50.4036   50.6394   50.6785   51.2043   51.2648   51.6839   51.7162
   52.0687   52.1142   52.2337   52.2964   52.7651   52.7867   53.0694   53.1355   53.8488   53.8806
   54.5427   54.5543   54.8165   54.8657   55.1309   55.1597   55.6798   55.7076   56.1107   56.1408
   56.4762   56.5198   56.7195   56.7482   57.0139   57.0820   57.5754   57.6437   58.0872   58.1204
   58.2461   58.3016   58.5881   58.6081   58.7549   58.7987   59.9452   59.9601   60.5000   60.5159
   60.5798   60.5887   60.9928   61.0232   61.3664   61.3813   61.5518   61.5668   62.0003   62.0179
   62.3364   62.4009   62.7706   63.0181   63.2967   63.3574   65.4159   65.4509   65.6572   65.6727
   66.6542   66.8160   68.7577   68.8433   71.2935   71.4335   79.1731   79.1917   80.5838   80.6141
   82.0619   82.0804   85.2085   85.2401   90.7876   90.7900   91.6874   91.7010   93.6840   93.7236
   93.9707   94.0006   95.3713   95.5303   97.3810   97.5170   98.0302   98.1099   99.7747   99.7989
  100.4462  100.4584  107.9150  108.0777
siesta: Fermi energy =      -6.306120 eV

siesta: Program's energy decomposition (eV):
siesta: Ebs     =     -1339.784416
siesta: Eions   =      5027.839259
siesta: Ena     =       301.248674
siesta: Ekin    =      3675.390547
siesta: Enl     =     -2673.570712
siesta: Eso     =        -0.005954
siesta: Edftu   =         0.000000
siesta: DEna    =       -13.048718
siesta: DUscf   =        14.094534
siesta: DUext   =         0.000000
siesta: Exc     =     -1298.703763
siesta: eta*DQ  =         0.000000
siesta: Emadel  =         0.000000
siesta: Emeta   =         0.000000
siesta: Emolmec =         0.000000
siesta: Ekinion =         0.000003
siesta: Eharris =     -5022.434647
siesta: Etot    =     -5022.434647
siesta: FreeEng =     -5022.452445

siesta: Final energy (eV):
siesta:  Band Struct. =   -1339.784416
siesta:       Kinetic =    3675.390547
siesta:       Hartree =   10549.998887
siesta:       Edftu   =       0.000000
siesta:       Eso     =      -0.005954
siesta:    Ext. field =       0.000000
siesta:   Exch.-corr. =   -1298.703763
siesta:  Ion-electron =  -24430.772864
siesta:       Ion-ion =    6481.658496
siesta:       Ekinion =       0.000003
siesta:         Total =   -5022.434647
siesta:         Fermi =      -6.306120

siesta: Stress tensor (static) (eV/Ang**3):
siesta:     0.000969    0.000132    0.000007
siesta:     0.000132    0.000511   -0.000393
siesta:     0.000007   -0.000393   -0.000053

siesta: Cell volume =       6250.230475 Ang**3

siesta: Pressure (static):
siesta:                Solid            Molecule  Units
siesta:          -0.00000518         -0.00000520  Ry/Bohr**3
siesta:          -0.00047579         -0.00047736  eV/Ang**3
siesta:          -0.76230906         -0.76483039  kBar
(Free)E+ p_basis*V_orbitals  =       -4998.543409
(Free)Eharris+ p_basis*V_orbitals  =       -4998.543409
     spin moment: S , {S} =    0.95565   0.00250  -0.00393   0.95564

siesta: Electric dipole (a.u.)  =   -0.834925   -1.443185    0.265314
siesta: Electric dipole (Debye) =   -2.122168   -3.668213    0.674362

cite: Please see "desoxy1.bib" for an exhaustive BiBTeX file.
cite: Please clearly indicate Siesta version in published work: v4.1.5-1-g384057250
cite: This calculation has made use of the following articles
cite: which are encouraged to be cited in a published work.
        Primary SIESTA paper
          DOI: www.doi.org/10.1088/0953-8984/14/11/302
        Spin-orbit coupling (on-site approximation)
          DOI: www.doi.org/10.1088/0953-8984/19/19/489001

WARNING: alloc-realloc-dealloc name mismatch
         Name: atomlist isa
         Node:     0
         Subsequent mismatches will not be reported
>> End of run:  17-OCT-2023  20:30:14
Job completed